42
Coordinates from ORCA-job /home/tchapet/Post-Doc/ARTICLES-DOSSIERS-DES-ARTICLES-EN-REDACTION/NOUVELS-AXES-DE-RECHERCHE-A-REGARDER-URGEMMENT/ARTICLES-EN-REDACTIONS/ARTICLE_MVOTO/Paper2_JCIM/solvatochromic_tddft/opt_gap_geometries/20549/20549_opt E -1106.494188814470
  O          -2.91715441675571     -3.98402801329428     -1.04726530389598
  C          -1.90310038102012     -4.28421358629155     -0.10337497923043
  C          -2.00325787822277     -3.42779013597214      1.17012289059191
  N          -1.92921930880850     -2.00083552089201      0.93770365745808
  C          -0.78819635475550     -1.28052590207807      0.71785480438226
  C           0.49107236521249     -1.86564579320114      0.94231916226295
  C           1.65294165450627     -1.16065825007366      0.77615893783107
  C           1.65844201818954      0.20319679496760      0.36582916781873
  C           0.39843994144329      0.82207354637793      0.11355469287486
  C          -0.82592924263849      0.07832754372972      0.28789003426708
  C          -2.12370486524386      0.71147810714311      0.01645384526700
  O          -3.21222130963381      0.11584262374915      0.15161456378522
  C          -2.14580712369034      2.12363153924171     -0.43991224230864
  C          -0.95472110843628      2.84794117432255     -0.60367418695124
  C           0.36192818134983      2.22102781762707     -0.33010357581843
  O           1.39121768970751      2.91003585454811     -0.49141877513457
  C          -1.00432938104696      4.18289583850791     -1.03265916671396
  C          -2.22913016404513      4.78697177735514     -1.29554033957049
  C          -3.41922594732434      4.06319884495829     -1.13241541819605
  C          -3.37766881145572      2.73979495985958     -0.70686187717765
  N           2.83701725562130      0.88058970571535      0.23509229411327
  C           4.16736659588915      0.34254848840768      0.42678928753045
  C           4.70934647657544     -0.43011312799013     -0.79100546172067
  O           6.04622524148721     -0.86344281677544     -0.58646882974299
  H          -3.77271487654996     -4.22854382960561     -0.65999225923903
  H          -0.95723300089351     -4.08227932473386     -0.61671736676628
  H          -1.90841061407532     -5.35080144696758      0.18073169739163
  H          -2.97021817291145     -3.62255677663593      1.65401931082093
  H          -1.23879547724668     -3.74645584507890      1.89015839560818
  H          -2.77185573062873     -1.51562401160785      0.63213933822041
  H           0.55684091393737     -2.90184826708624      1.25453413192201
  H           2.59501234604443     -1.66468816203567      0.96110788441311
  H          -0.06931192779731      4.71990529456874     -1.15088974402027
  H          -2.26336080469693      5.82133626165337     -1.62787647535005
  H          -4.37571674682207      4.53666250247230     -1.33858813227213
  H          -4.28313035759980      2.15787479266299     -0.57235772560253
  H           2.72211763123073      1.84090374729677     -0.08679660759635
  H           4.20014913601060     -0.30005705805306      1.31895012507639
  H           4.84227790301332      1.18100210553066      0.62734107829014
  H           4.03969102785305     -1.26824652940846     -1.04100184391020
  H           4.73474166772781      0.23481589172991     -1.65972807397100
  H           6.03958596649990     -1.54370084464405      0.10497572526326
