38
Coordinates from ORCA-job /home/tchapet/Post-Doc/ARTICLES-DOSSIERS-DES-ARTICLES-EN-REDACTION/NOUVELS-AXES-DE-RECHERCHE-A-REGARDER-URGEMMENT/ARTICLES-EN-REDACTIONS/ARTICLE_MVOTO/Paper2_JCIM/solvatochromic_tddft/opt_gap_geometries/5081/5081_opt E -1133.521646445138
  C           5.47776392798388     -2.10099630894488      1.12084049499304
  C           4.70136727332950     -2.70787517784279     -0.03961182756440
  O           3.27357498194221     -2.60057640238085      0.16901557853757
  C           2.69369350869582     -1.45129082349317     -0.21456587906373
  O           3.29437348852466     -0.51669119670205     -0.72778534411266
  C           1.24280300063621     -1.43599238610115      0.04718147347961
  N           0.55075708952000     -2.45287545305519      0.67949281739202
  C          -0.69070576807342     -2.04930370685055      0.72775366688629
  N          -0.85910728614458     -0.80211206925759      0.14915781051421
  C           0.38574400952118     -0.40401824943848     -0.28962883713441
  C           0.54674624748586      0.93402861563052     -0.92715435084383
  N           0.27542812762388      2.00962212972390      0.03313551610612
  C           1.40048413390186      2.83533530387844      0.46413409774960
  C          -0.97345157591397      2.25509593414461      0.53430835624635
  O          -1.21783346055869      3.20662238700737      1.27329509537917
  C          -2.11380968565022      1.33477810230136      0.12850854961956
  C          -2.06629030392123     -0.07037583638140     -0.01096269047382
  C          -3.23841632025566     -0.78443255005050     -0.29705938101675
  C          -4.45787541020574     -0.13494837318661     -0.43400967455806
  C          -4.51769538936485      1.25881920610803     -0.28894346333246
  C          -3.35256024689789      1.97171110781266     -0.00207574415499
  N          -5.70354067445493      2.02357801205390     -0.41211785621661
  N          -6.76435028543917      1.43037999748583     -0.65339206012555
  N          -7.80554664743787      1.01908210576313     -0.87328651087386
  H           6.55156729549076     -2.27248241728053      0.97959576588311
  H           5.17729846565607     -2.55747331598467      2.06982470983546
  H           5.30669241303203     -1.02192760985174      1.17629684109350
  H           4.87788905685750     -3.78340695137287     -0.12012864084844
  H           4.95912051299907     -2.22408442369374     -0.98524607160421
  H          -1.51431324802754     -2.57860440049904      1.18729131959763
  H           1.57411605066381      1.03110907211957     -1.27598734414990
  H          -0.12066990293429      1.03144320020701     -1.79432576764010
  H           2.22276850789813      2.19495489153663      0.80157961515993
  H           1.76010512159205      3.46317038009740     -0.36106713649211
  H           1.06381733444653      3.47504322844313      1.27909417122900
  H          -3.18535499660179     -1.86008163226609     -0.43185637378339
  H          -5.35147074336238     -0.70895743148995     -0.66246485727354
  H          -3.40311857255675      3.04373303181035      0.14869913156064
