42
20549 RDKit ETKDGv3(seed=42)+UFF
O     -2.70863152    -3.20991185    -1.17171087
C     -1.82465299    -3.88183722    -0.31579739
C     -2.08023791    -3.49177871     1.14257837
N     -1.94182101    -2.04666683     1.33480281
C     -0.72092427    -1.32678603     1.08088870
C      0.48933187    -1.85588466     1.54441485
C      1.67219277    -1.13969090     1.42522457
C      1.68579173     0.13046625     0.83944769
C      0.48316964     0.67303923     0.31311723
C     -0.72943086    -0.06124617     0.43355411
C     -1.97653455     0.50429113    -0.16350180
O     -2.99198088    -0.22092416    -0.34413433
C     -2.01688980     1.91415079    -0.60457088
C     -0.81845217     2.63973311    -0.72242526
C      0.46641421     1.98357785    -0.40305465
O      1.54003586     2.52386390    -0.78458277
C     -0.85501213     3.97328141    -1.16994249
C     -2.07309513     4.57718238    -1.48976325
C     -3.26241491     3.85715626    -1.37284602
C     -3.23754095     2.53086769    -0.93574547
N      2.90899283     0.88800255     0.84571108
C      4.19667679     0.32962213     0.43192282
C      4.15275961    -0.09898544    -1.03608413
O      5.41479572    -0.54719222    -1.44881774
H     -3.59311493    -3.64866939    -1.06777241
H     -0.78301633    -3.61919555    -0.59695827
H     -1.93601674    -4.98341979    -0.43379022
H     -3.10964151    -3.80249856     1.42491948
H     -1.37980110    -4.03806548     1.80722899
H     -2.77252142    -1.52212419     1.69008225
H      0.51663491    -2.80982366     2.05243569
H      2.57479935    -1.56247170     1.84482403
H      0.05639608     4.54960092    -1.26887825
H     -2.09456793     5.60432867    -1.83046737
H     -4.20507638     4.32660060    -1.62300881
H     -4.17188678     1.98975439    -0.85329785
H      2.88370198     1.88503450     1.15725800
H      4.46790432    -0.53264838     1.07569983
H      4.98549885     1.10300839     0.55739821
H      3.39230865    -0.89906679    -1.18487409
H      3.86336499     0.77088006    -1.66327670
H      5.53249205    -1.45555456    -1.06551505
