42
Coordinates from ORCA-job /home/tchapet/Post-Doc/ARTICLES-DOSSIERS-DES-ARTICLES-EN-REDACTION/NOUVELS-AXES-DE-RECHERCHE-A-REGARDER-URGEMMENT/ARTICLES-EN-REDACTIONS/ARTICLE_MVOTO/Paper2_JCIM/solvatochromic_tddft/opt_gap_geometries/20549/20549_opt E -1106.431505581808
  O      -2.708632     -3.209912     -1.171711
  C      -1.824653     -3.881837     -0.315797
  C      -2.080238     -3.491779      1.142578
  N      -1.941821     -2.046667      1.334803
  C      -0.720924     -1.326786      1.080889
  C       0.489332     -1.855885      1.544415
  C       1.672193     -1.139691      1.425225
  C       1.685792      0.130466      0.839448
  C       0.483170      0.673039      0.313117
  C      -0.729431     -0.061246      0.433554
  C      -1.976535      0.504291     -0.163502
  O      -2.991981     -0.220924     -0.344134
  C      -2.016890      1.914151     -0.604571
  C      -0.818452      2.639733     -0.722425
  C       0.466414      1.983578     -0.403055
  O       1.540036      2.523864     -0.784583
  C      -0.855012      3.973281     -1.169942
  C      -2.073095      4.577182     -1.489763
  C      -3.262415      3.857156     -1.372846
  C      -3.237541      2.530868     -0.935745
  N       2.908993      0.888003      0.845711
  C       4.196677      0.329622      0.431923
  C       4.152760     -0.098985     -1.036084
  O       5.414796     -0.547192     -1.448818
  H      -3.593115     -3.648669     -1.067772
  H      -0.783016     -3.619196     -0.596958
  H      -1.936017     -4.983420     -0.433790
  H      -3.109642     -3.802499      1.424919
  H      -1.379801     -4.038065      1.807229
  H      -2.772521     -1.522124      1.690082
  H       0.516635     -2.809824      2.052436
  H       2.574799     -1.562472      1.844824
  H       0.056396      4.549601     -1.268878
  H      -2.094568      5.604329     -1.830467
  H      -4.205076      4.326601     -1.623009
  H      -4.171887      1.989754     -0.853298
  H       2.883702      1.885034      1.157258
  H       4.467904     -0.532648      1.075700
  H       4.985499      1.103008      0.557398
  H       3.392309     -0.899067     -1.184874
  H       3.863365      0.770880     -1.663277
  H       5.532492     -1.455555     -1.065515
42
Coordinates from ORCA-job /home/tchapet/Post-Doc/ARTICLES-DOSSIERS-DES-ARTICLES-EN-REDACTION/NOUVELS-AXES-DE-RECHERCHE-A-REGARDER-URGEMMENT/ARTICLES-EN-REDACTIONS/ARTICLE_MVOTO/Paper2_JCIM/solvatochromic_tddft/opt_gap_geometries/20549/20549_opt E -1106.449686242757
  O      -2.556272     -3.422559     -1.244491
  C      -1.707039     -3.979275     -0.264694
  C      -2.022031     -3.476168      1.155762
  N      -1.943791     -2.027721      1.285532
  C      -0.773587     -1.288505      1.044220
  C       0.441161     -1.815631      1.505230
  C       1.624212     -1.107314      1.386383
  C       1.652710      0.165259      0.801617
  C       0.447914      0.718200      0.284196
  C      -0.779666     -0.014027      0.407383
  C      -2.032460      0.567535     -0.171568
  O      -3.066660     -0.097419     -0.326163
  C      -2.046407      1.984411     -0.595986
  C      -0.842701      2.696903     -0.721161
  C       0.444953      2.035078     -0.425143
  O       1.490088      2.592319     -0.796216
  C      -0.863642      4.030560     -1.152134
  C      -2.076314      4.651319     -1.447203
  C      -3.275954      3.941811     -1.321842
  C      -3.261324      2.612498     -0.902033
  N       2.870929      0.868797      0.807870
  C       4.146465      0.274202      0.430807
  C       4.153466     -0.191708     -1.031835
  O       5.433244     -0.663638     -1.417253
  H      -3.422780     -3.854264     -1.155092
  H      -0.676008     -3.709353     -0.528611
  H      -1.767564     -5.084275     -0.275696
  H      -3.041751     -3.786081      1.422956
  H      -1.347167     -3.975746      1.875018
  H      -2.773237     -1.535683      1.573974
  H       0.461290     -2.776501      2.008149
  H       2.530705     -1.534479      1.801971
  H       0.062878      4.584962     -1.254632
  H      -2.088109      5.686053     -1.776735
  H      -4.220360      4.425063     -1.554225
  H      -4.194342      2.067067     -0.811693
  H       2.860667      1.842681      1.065123
  H       4.399472     -0.572450      1.095077
  H       4.930762      1.029758      0.560888
  H       3.386828     -0.971693     -1.183570
  H       3.895958      0.657002     -1.677017
  H       5.545464     -1.546988     -1.026471
42
Coordinates from ORCA-job /home/tchapet/Post-Doc/ARTICLES-DOSSIERS-DES-ARTICLES-EN-REDACTION/NOUVELS-AXES-DE-RECHERCHE-A-REGARDER-URGEMMENT/ARTICLES-EN-REDACTIONS/ARTICLE_MVOTO/Paper2_JCIM/solvatochromic_tddft/opt_gap_geometries/20549/20549_opt E -1106.456547566026
  O      -2.422715     -3.514078     -1.279386
  C      -1.627845     -4.023339     -0.225343
  C      -2.003805     -3.464699      1.159598
  N      -1.952254     -2.018674      1.246957
  C      -0.807935     -1.266980      1.022764
  C       0.419179     -1.796773      1.467080
  C       1.599242     -1.093092      1.347493
  C       1.637787      0.190848      0.773841
  C       0.426181      0.748957      0.277081
  C      -0.809411      0.017187      0.405728
  C      -2.070582      0.599366     -0.153664
  O      -3.114351     -0.039050     -0.283227
  C      -2.068323      2.023111     -0.578972
  C      -0.864276      2.729561     -0.712660
  C       0.433629      2.069830     -0.426489
  O       1.464961      2.636933     -0.790547
  C      -0.880074      4.062236     -1.141360
  C      -2.091167      4.689078     -1.423413
  C      -3.294518      3.983869     -1.288883
  C      -3.282357      2.654537     -0.873523
  N       2.857075      0.861207      0.769730
  C       4.125256      0.243852      0.425518
  C       4.160961     -0.263587     -1.025701
  O       5.450889     -0.750740     -1.380167
  H      -3.296495     -3.924516     -1.218430
  H      -0.593499     -3.755439     -0.460691
  H      -1.675407     -5.124683     -0.178828
  H      -3.030337     -3.764440      1.397110
  H      -1.363389     -3.948954      1.916929
  H      -2.803055     -1.540125      1.471929
  H       0.437327     -2.764299      1.958304
  H       2.510168     -1.524763      1.750775
  H       0.056131      4.599585     -1.249415
  H      -2.100159      5.725719     -1.750736
  H      -4.240076      4.471818     -1.511849
  H      -4.209554      2.100048     -0.775359
  H       2.859008      1.844388      0.966626
  H       4.374840     -0.582974      1.112344
  H       4.907584      0.996780      0.548083
  H       3.390567     -1.035153     -1.172912
  H       3.929422      0.566665     -1.696937
  H       5.561379     -1.619217     -0.968704
42
Coordinates from ORCA-job /home/tchapet/Post-Doc/ARTICLES-DOSSIERS-DES-ARTICLES-EN-REDACTION/NOUVELS-AXES-DE-RECHERCHE-A-REGARDER-URGEMMENT/ARTICLES-EN-REDACTIONS/ARTICLE_MVOTO/Paper2_JCIM/solvatochromic_tddft/opt_gap_geometries/20549/20549_opt E -1106.464233886125
  O      -2.234565     -3.661787     -1.302681
  C      -1.526984     -4.097114     -0.155802
  C      -2.002461     -3.456567      1.161355
  N      -1.974156     -2.009747      1.173573
  C      -0.846259     -1.243312      0.974798
  C       0.393339     -1.778677      1.401226
  C       1.569537     -1.080290      1.282884
  C       1.618386      0.217927      0.724406
  C       0.399741      0.785128      0.257099
  C      -0.842036      0.055607      0.389832
  C      -2.112657      0.646713     -0.132356
  O      -3.174060      0.033414     -0.218824
  C      -2.095455      2.077605     -0.556455
  C      -0.891227      2.776105     -0.701025
  C       0.416173      2.114939     -0.428297
  O       1.442710      2.695592     -0.775591
  C      -0.903016      4.111623     -1.121675
  C      -2.112816      4.748129     -1.383095
  C      -3.319482      4.049302     -1.236825
  C      -3.309925      2.717870     -0.831027
  N       2.843975      0.859975      0.706321
  C       4.109715      0.217966      0.413168
  C       4.177890     -0.355630     -1.013920
  O       5.475808     -0.863295     -1.315924
  H      -3.120688     -4.049540     -1.282001
  H      -0.482173     -3.833438     -0.340040
  H      -1.569459     -5.191539     -0.031376
  H      -3.042873     -3.745390      1.344691
  H      -1.419624     -3.905524      1.983542
  H      -2.852735     -1.544738      1.297216
  H       0.409696     -2.755226      1.874601
  H       2.484510     -1.519188      1.669439
  H       0.042752      4.630586     -1.236781
  H      -2.119397      5.787397     -1.703228
  H      -4.265186      4.544877     -1.443512
  H      -4.231459      2.155699     -0.722755
  H       2.858280      1.856921      0.813585
  H       4.353325     -0.575811      1.138584
  H       4.892081      0.972902      0.517953
  H       3.403034     -1.123105     -1.148942
  H       3.978714      0.445314     -1.728676
  H       5.579025     -1.711674     -0.862772
42
Coordinates from ORCA-job /home/tchapet/Post-Doc/ARTICLES-DOSSIERS-DES-ARTICLES-EN-REDACTION/NOUVELS-AXES-DE-RECHERCHE-A-REGARDER-URGEMMENT/ARTICLES-EN-REDACTIONS/ARTICLE_MVOTO/Paper2_JCIM/solvatochromic_tddft/opt_gap_geometries/20549/20549_opt E -1106.474443279643
  O      -1.994751     -3.852050     -1.305994
  C      -1.409740     -4.185497     -0.060531
  C      -2.010069     -3.442673      1.147023
  N      -1.995968     -1.998775      1.053790
  C      -0.883182     -1.216877      0.894888
  C       0.370087     -1.758709      1.302237
  C       1.540505     -1.063454      1.186368
  C       1.596486      0.251077      0.644923
  C       0.369304      0.831012      0.223589
  C      -0.876095      0.103347      0.361836
  C      -2.157708      0.710982     -0.090968
  O      -3.239409      0.121355     -0.110492
  C      -2.130511      2.145604     -0.519272
  C      -0.927413      2.837131     -0.679960
  C       0.389255      2.176873     -0.420653
  O       1.415618      2.777623     -0.737911
  C      -0.938972      4.177307     -1.090362
  C      -2.148723      4.822317     -1.325867
  C      -3.357086      4.129015     -1.162619
  C      -3.347587      2.795571     -0.766462
  N       2.827313      0.866402      0.599453
  C       4.095181      0.198681      0.388695
  C       4.205918     -0.491011     -0.984663
  O       5.511511     -1.022661     -1.199666
  H      -2.893621     -4.211727     -1.338417
  H      -0.353191     -3.928778     -0.173596
  H      -1.462767     -5.264042      0.160560
  H      -3.064674     -3.721471      1.251277
  H      -1.512230     -3.832813      2.051236
  H      -2.894975     -1.555300      1.026527
  H       0.387009     -2.747051      1.749934
  H       2.461053     -1.511088      1.548393
  H       0.015369      4.678069     -1.214867
  H      -2.155701      5.864187     -1.637465
  H      -4.303260      4.632221     -1.347666
  H      -4.261782      2.224815     -0.642165
  H       2.851821      1.869356      0.564987
  H       4.329920     -0.530376      1.181004
  H       4.875737      0.960956      0.452557
  H       3.428455     -1.260556     -1.086859
  H       4.046055      0.249480     -1.771682
  H       5.602816     -1.828473     -0.670446
42
Coordinates from ORCA-job /home/tchapet/Post-Doc/ARTICLES-DOSSIERS-DES-ARTICLES-EN-REDACTION/NOUVELS-AXES-DE-RECHERCHE-A-REGARDER-URGEMMENT/ARTICLES-EN-REDACTIONS/ARTICLE_MVOTO/Paper2_JCIM/solvatochromic_tddft/opt_gap_geometries/20549/20549_opt E -1106.483729318571
  O      -1.881202     -3.996992     -1.300189
  C      -1.376534     -4.252356     -0.003334
  C      -2.033415     -3.418087      1.112309
  N      -1.995668     -1.980728      0.933324
  C      -0.885396     -1.200428      0.814037
  C       0.377799     -1.742529      1.215332
  C       1.542217     -1.044496      1.096086
  C       1.594691      0.278515      0.554920
  C       0.359000      0.865158      0.180443
  C      -0.882166      0.134908      0.329335
  C      -2.173013      0.749770     -0.042816
  O      -3.264330      0.167911      0.026048
  C      -2.156248      2.183301     -0.477524
  C      -0.957930      2.877555     -0.658928
  C       0.367853      2.225353     -0.414147
  O       1.395678      2.854708     -0.686809
  C      -0.981234      4.222025     -1.060654
  C      -2.196223      4.865030     -1.269350
  C      -3.400253      4.168473     -1.085019
  C      -3.380707      2.834108     -0.694914
  N       2.820851      0.885071      0.466746
  C       4.101142      0.214572      0.356970
  C       4.263543     -0.619107     -0.929145
  O       5.579706     -1.152193     -1.038351
  H      -2.796391     -4.313981     -1.354622
  H      -0.310717     -4.022431     -0.079340
  H      -1.464229     -5.311120      0.292814
  H      -3.098544     -3.674013      1.162805
  H      -1.603114     -3.757816      2.070202
  H      -2.885477     -1.544512      0.754094
  H       0.398715     -2.735144      1.651735
  H       2.468677     -1.493442      1.439626
  H      -0.025471      4.716728     -1.197731
  H      -2.212649      5.908547     -1.574401
  H      -4.350120      4.672153     -1.247447
  H      -4.285514      2.253169     -0.550996
  H       2.835251      1.870835      0.262793
  H       4.329852     -0.417648      1.229886
  H       4.870097      0.992434      0.358202
  H       3.494661     -1.402995     -0.977233
  H       4.132209      0.029007     -1.799920
  H       5.664604     -1.889314     -0.414143
42
Coordinates from ORCA-job /home/tchapet/Post-Doc/ARTICLES-DOSSIERS-DES-ARTICLES-EN-REDACTION/NOUVELS-AXES-DE-RECHERCHE-A-REGARDER-URGEMMENT/ARTICLES-EN-REDACTIONS/ARTICLE_MVOTO/Paper2_JCIM/solvatochromic_tddft/opt_gap_geometries/20549/20549_opt E -1106.488943366972
  O      -1.915036     -4.056655     -1.293805
  C      -1.407338     -4.286576      0.005585
  C      -2.050104     -3.406100      1.094527
  N      -1.984324     -1.972886      0.877264
  C      -0.866114     -1.203585      0.774039
  C       0.400251     -1.748109      1.166905
  C       1.561751     -1.045297      1.040754
  C       1.601144      0.280720      0.501304
  C       0.360104      0.877272      0.166614
  C      -0.875014      0.143558      0.320113
  C      -2.167326      0.766766     -0.002747
  O      -3.260502      0.178429      0.096383
  C      -2.165003      2.192356     -0.446056
  C      -0.968816      2.893603     -0.629195
  C       0.355103      2.249510     -0.377382
  O       1.388417      2.897627     -0.613377
  C      -1.001418      4.238495     -1.033073
  C      -2.219971      4.873033     -1.244904
  C      -3.420048      4.169932     -1.060111
  C      -3.393525      2.837242     -0.665718
  N       2.815401      0.898200      0.372519
  C       4.112351      0.247425      0.328969
  C       4.317536     -0.676210     -0.887439
  O       5.642156     -1.190478     -0.924712
  H      -2.844236     -4.336972     -1.324624
  H      -0.336283     -4.083084     -0.079064
  H      -1.518316     -5.336364      0.328685
  H      -3.120345     -3.644137      1.141452
  H      -1.630454     -3.713956      2.067226
  H      -2.850827     -1.521444      0.610473
  H       0.427750     -2.742456      1.598508
  H       2.492689     -1.495160      1.369434
  H      -0.048850      4.739562     -1.169297
  H      -2.243599      5.915453     -1.552151
  H      -4.371783      4.668772     -1.224531
  H      -4.295534      2.252658     -0.518829
  H       2.795508      1.854102      0.042483
  H       4.334625     -0.310099      1.253277
  H       4.865815      1.040235      0.284552
  H       3.562768     -1.476399     -0.896646
  H       4.195961     -0.097427     -1.808512
  H       5.725438     -1.871557     -0.238201
42
Coordinates from ORCA-job /home/tchapet/Post-Doc/ARTICLES-DOSSIERS-DES-ARTICLES-EN-REDACTION/NOUVELS-AXES-DE-RECHERCHE-A-REGARDER-URGEMMENT/ARTICLES-EN-REDACTIONS/ARTICLE_MVOTO/Paper2_JCIM/solvatochromic_tddft/opt_gap_geometries/20549/20549_opt E -1106.491973676243
  O      -2.152042     -4.086741     -1.258753
  C      -1.521052     -4.312853     -0.014032
  C      -2.054207     -3.406246      1.112211
  N      -1.971255     -1.979016      0.864841
  C      -0.837675     -1.232107      0.738112
  C       0.428471     -1.785439      1.105182
  C       1.590718     -1.079320      0.967446
  C       1.610881      0.249091      0.443090
  C       0.365583      0.861142      0.147608
  C      -0.864433      0.124343      0.299662
  C      -2.152091      0.759962     -0.000534
  O      -3.248779      0.169484      0.116228
  C      -2.161127      2.179523     -0.433853
  C      -0.963145      2.890480     -0.596779
  C       0.348387      2.247203     -0.332979
  O       1.389861      2.917238     -0.502754
  C      -0.999257      4.236008     -0.999317
  C      -2.218158      4.861991     -1.232278
  C      -3.416439      4.151088     -1.069299
  C      -3.388923      2.818580     -0.674517
  N       2.802372      0.902154      0.292852
  C       4.125182      0.300311      0.321629
  C       4.425235     -0.645642     -0.856973
  O       5.761110     -1.120803     -0.805504
  H      -3.088775     -4.329946     -1.177920
  H      -0.457042     -4.130351     -0.193904
  H      -1.622831     -5.360287      0.322084
  H      -3.121124     -3.627470      1.245481
  H      -1.559114     -3.682856      2.056720
  H      -2.812856     -1.497511      0.554592
  H       0.464627     -2.782103      1.531461
  H       2.524645     -1.533340      1.280521
  H      -0.052749      4.752428     -1.119043
  H      -2.244343      5.904108     -1.539529
  H      -4.367533      4.644618     -1.250956
  H      -4.295156      2.236932     -0.543426
  H       2.718775      1.821694     -0.137175
  H       4.308938     -0.221514      1.274625
  H       4.850919      1.119723      0.290640
  H       3.697219     -1.470540     -0.889194
  H       4.333133     -0.093837     -1.798732
  H       5.824051     -1.770178     -0.086842
42
Coordinates from ORCA-job /home/tchapet/Post-Doc/ARTICLES-DOSSIERS-DES-ARTICLES-EN-REDACTION/NOUVELS-AXES-DE-RECHERCHE-A-REGARDER-URGEMMENT/ARTICLES-EN-REDACTIONS/ARTICLE_MVOTO/Paper2_JCIM/solvatochromic_tddft/opt_gap_geometries/20549/20549_opt E -1106.492917301314
  O      -2.396226     -4.035130     -1.222084
  C      -1.628297     -4.287159     -0.060747
  C      -2.034938     -3.401102      1.132341
  N      -1.955887     -1.973721      0.896677
  C      -0.811903     -1.242854      0.745980
  C       0.451438     -1.814142      1.066957
  C       1.617051     -1.110597      0.923995
  C       1.634204      0.229616      0.442358
  C       0.382434      0.860017      0.166149
  C      -0.846259      0.118436      0.322795
  C      -2.137598      0.755983      0.045217
  O      -3.227347      0.151860      0.154619
  C      -2.159895      2.161715     -0.414455
  C      -0.965714      2.881309     -0.580446
  C       0.344314      2.255604     -0.293576
  O       1.374823      2.933607     -0.498048
  C      -1.010810      4.213724     -1.020939
  C      -2.232845      4.819845     -1.288366
  C      -3.425700      4.101251     -1.121304
  C      -3.389678      2.780680     -0.688595
  N       2.827034      0.890469      0.322907
  C       4.147334      0.287105      0.372193
  C       4.510917     -0.562471     -0.860432
  O       5.839760     -1.053156     -0.775450
  H      -3.318028     -4.270247     -1.031735
  H      -0.588814     -4.099665     -0.347386
  H      -1.696542     -5.342891      0.256534
  H      -3.083637     -3.618002      1.371513
  H      -1.446445     -3.684430      2.018022
  H      -2.788864     -1.474155      0.590159
  H       0.492872     -2.823314      1.462796
  H       2.551517     -1.581874      1.209018
  H      -0.073030      4.745277     -1.142702
  H      -2.265167      5.852280     -1.626562
  H      -4.379421      4.578616     -1.330851
  H      -4.296662      2.201086     -0.554101
  H       2.732692      1.825924     -0.068303
  H       4.268112     -0.310427      1.289185
  H       4.873113      1.103094      0.445367
  H       3.783551     -1.376995     -0.999870
  H       4.468274      0.064299     -1.757094
  H       5.860266     -1.749465     -0.101045
42
Coordinates from ORCA-job /home/tchapet/Post-Doc/ARTICLES-DOSSIERS-DES-ARTICLES-EN-REDACTION/NOUVELS-AXES-DE-RECHERCHE-A-REGARDER-URGEMMENT/ARTICLES-EN-REDACTIONS/ARTICLE_MVOTO/Paper2_JCIM/solvatochromic_tddft/opt_gap_geometries/20549/20549_opt E -1106.493725442472
  O      -2.640578     -4.013921     -1.151819
  C      -1.742831     -4.280310     -0.088717
  C      -2.012560     -3.415678      1.156738
  N      -1.948829     -1.988736      0.930578
  C      -0.806012     -1.263149      0.747457
  C       0.461230     -1.840944      1.032882
  C       1.627827     -1.137357      0.885836
  C       1.642036      0.211935      0.436795
  C       0.389060      0.836579      0.156720
  C      -0.840539      0.094519      0.312307
  C      -2.131679      0.730544      0.020795
  O      -3.221893      0.133260      0.135804
  C      -2.147778      2.139667     -0.436048
  C      -0.951845      2.861212     -0.588866
  C       0.357682      2.231492     -0.301276
  O       1.387787      2.922687     -0.440950
  C      -0.993441      4.193992     -1.024631
  C      -2.213295      4.798786     -1.305998
  C      -3.407147      4.078197     -1.154185
  C      -3.374294      2.757204     -0.721913
  N       2.827013      0.889565      0.330134
  C       4.151489      0.306682      0.405489
  C       4.577904     -0.471385     -0.854183
  O       5.911349     -0.949951     -0.744772
  H      -3.533344     -4.253002     -0.859102
  H      -0.744737     -4.075748     -0.487565
  H      -1.766511     -5.341828      0.212757
  H      -3.027735     -3.631372      1.512245
  H      -1.332443     -3.713174      1.967584
  H      -2.788967     -1.485050      0.652639
  H       0.509379     -2.861118      1.398256
  H       2.564500     -1.621762      1.139349
  H      -0.057192      4.730382     -1.134832
  H      -2.242062      5.831499     -1.644430
  H      -4.359626      4.553536     -1.374933
  H      -4.284212      2.180239     -0.596674
  H       2.717712      1.832126     -0.036696
  H       4.236622     -0.338950      1.291333
  H       4.860903      1.126241      0.553461
  H       3.867954     -1.285829     -1.064892
  H       4.560400      0.201506     -1.716421
  H       5.918704     -1.672584     -0.099562
42
Coordinates from ORCA-job /home/tchapet/Post-Doc/ARTICLES-DOSSIERS-DES-ARTICLES-EN-REDACTION/NOUVELS-AXES-DE-RECHERCHE-A-REGARDER-URGEMMENT/ARTICLES-EN-REDACTIONS/ARTICLE_MVOTO/Paper2_JCIM/solvatochromic_tddft/opt_gap_geometries/20549/20549_opt E -1106.493982731880
  O      -2.739809     -4.002337     -1.123113
  C      -1.798170     -4.277192     -0.099968
  C      -2.011121     -3.420965      1.161271
  N      -1.944865     -1.993260      0.940600
  C      -0.802897     -1.267937      0.753332
  C       0.470995     -1.849240      1.011768
  C       1.635986     -1.144783      0.860928
  C       1.648395      0.213955      0.436748
  C       0.393251      0.833256      0.166433
  C      -0.834917      0.089334      0.320982
  C      -2.127855      0.719977      0.026332
  O      -3.217771      0.126759      0.156037
  C      -2.141688      2.130445     -0.436673
  C      -0.947029      2.854103     -0.584674
  C       0.365155      2.231438     -0.278009
  O       1.397163      2.915750     -0.429110
  C      -0.988739      4.184490     -1.026479
  C      -2.208485      4.785481     -1.317989
  C      -3.401735      4.063204     -1.168900
  C      -3.368136      2.744217     -0.729651
  N       2.829229      0.893719      0.321786
  C       4.156373      0.323465      0.415831
  C       4.603386     -0.446085     -0.842340
  O       5.941787     -0.910900     -0.724413
  H      -3.620739     -4.242765     -0.796521
  H      -0.819757     -4.063929     -0.540804
  H      -1.805523     -5.341127      0.193221
  H      -3.010866     -3.631230      1.562771
  H      -1.302230     -3.733111      1.939836
  H      -2.785356     -1.492750      0.656948
  H       0.526345     -2.879923      1.343340
  H       2.575431     -1.641078      1.077641
  H      -0.052543      4.722226     -1.130640
  H      -2.236848      5.816627     -1.661288
  H      -4.354348      4.534687     -1.397346
  H      -4.276723      2.164863     -0.605502
  H       2.716342      1.837627     -0.041415
  H       4.234303     -0.327879      1.297275
  H       4.858616      1.146554      0.579247
  H       3.902096     -1.265962     -1.060462
  H       4.588833      0.229089     -1.702757
  H       5.954463     -1.628817     -0.073579
42
Coordinates from ORCA-job /home/tchapet/Post-Doc/ARTICLES-DOSSIERS-DES-ARTICLES-EN-REDACTION/NOUVELS-AXES-DE-RECHERCHE-A-REGARDER-URGEMMENT/ARTICLES-EN-REDACTIONS/ARTICLE_MVOTO/Paper2_JCIM/solvatochromic_tddft/opt_gap_geometries/20549/20549_opt E -1106.494111630304
  O      -2.798502     -4.006573     -1.094813
  C      -1.834013     -4.283231     -0.094152
  C      -2.014537     -3.422048      1.167830
  N      -1.942289     -1.994802      0.937491
  C      -0.798896     -1.271197      0.741493
  C       0.478291     -1.856433      0.980228
  C       1.641805     -1.151785      0.827826
  C       1.653866      0.213006      0.420095
  C       0.396833      0.831783      0.153804
  C      -0.830139      0.088182      0.314394
  C      -2.125205      0.719555      0.029501
  O      -3.215121      0.124374      0.158815
  C      -2.141746      2.128671     -0.438501
  C      -0.948959      2.851832     -0.593865
  C       0.366236      2.228445     -0.297947
  O       1.395818      2.919561     -0.442981
  C      -0.993875      4.183182     -1.033441
  C      -2.215706      4.784708     -1.316692
  C      -3.407476      4.062014     -1.161809
  C      -3.370433      2.742129     -0.724419
  N       2.835774      0.890756      0.310534
  C       4.163343      0.324989      0.429782
  C       4.636883     -0.429430     -0.827897
  O       5.974200     -0.889579     -0.691190
  H      -3.673083     -4.244557     -0.747140
  H      -0.865559     -4.069689     -0.557963
  H      -1.836530     -5.347563      0.199337
  H      -3.005571     -3.625243      1.596569
  H      -1.290169     -3.735518      1.930846
  H      -2.781903     -1.499381      0.637340
  H       0.538704     -2.892866      1.291468
  H       2.581602     -1.655795      1.023679
  H      -0.058107      4.720653     -1.143536
  H      -2.245991      5.816051     -1.658591
  H      -4.361589      4.533148     -1.383625
  H      -4.277801      2.162010     -0.594879
  H       2.726292      1.844449     -0.033628
  H       4.223885     -0.338090      1.304454
  H       4.861404      1.147185      0.618783
  H       3.941932     -1.249933     -1.065473
  H       4.636399      0.254357     -1.682533
  H       5.979934     -1.607331     -0.038503
42
Coordinates from ORCA-job /home/tchapet/Post-Doc/ARTICLES-DOSSIERS-DES-ARTICLES-EN-REDACTION/NOUVELS-AXES-DE-RECHERCHE-A-REGARDER-URGEMMENT/ARTICLES-EN-REDACTIONS/ARTICLE_MVOTO/Paper2_JCIM/solvatochromic_tddft/opt_gap_geometries/20549/20549_opt E -1106.494147432920
  O      -2.841237     -4.004680     -1.072403
  C      -1.857955     -4.287028     -0.092014
  C      -2.010165     -3.425252      1.172934
  N      -1.938479     -1.998645      0.938701
  C      -0.796553     -1.276728      0.729739
  C       0.481439     -1.863813      0.958898
  C       1.644310     -1.158684      0.805186
  C       1.654591      0.208291      0.404552
  C       0.396684      0.828191      0.143743
  C      -0.829600      0.084419      0.305197
  C      -2.124820      0.717671      0.021895
  O      -3.215558      0.123224      0.149420
  C      -2.142164      2.127727     -0.441483
  C      -0.949668      2.851027     -0.596086
  C       0.364772      2.226565     -0.302947
  O       1.394864      2.916702     -0.453359
  C      -0.994771      4.183598     -1.032560
  C      -2.216802      4.786373     -1.312188
  C      -3.408430      4.063569     -1.157992
  C      -3.371153      2.742275     -0.724768
  N       2.835471      0.887881      0.298047
  C       4.164529      0.328925      0.435219
  C       4.659250     -0.418928     -0.818153
  O       5.996006     -0.873611     -0.664684
  H      -3.709330     -4.240253     -0.707287
  H      -0.897555     -4.076101     -0.573988
  H      -1.859627     -5.352022      0.199090
  H      -2.992003     -3.625673      1.623681
  H      -1.269302     -3.737516      1.920797
  H      -2.780129     -1.506110      0.639297
  H       0.544032     -2.901711      1.266092
  H       2.584314     -1.664516      0.995461
  H      -0.058989      4.720920     -1.143193
  H      -2.247153      5.818797     -1.650664
  H      -4.362711      4.535539     -1.377056
  H      -4.278427      2.161685     -0.596913
  H       2.725263      1.843971     -0.038774
  H       4.215524     -0.337035      1.308782
  H       4.855986      1.153624      0.637112
  H       3.971109     -1.241974     -1.067480
  H       4.667487      0.267552     -1.670674
  H       5.996949     -1.588246     -0.008480
42
Coordinates from ORCA-job /home/tchapet/Post-Doc/ARTICLES-DOSSIERS-DES-ARTICLES-EN-REDACTION/NOUVELS-AXES-DE-RECHERCHE-A-REGARDER-URGEMMENT/ARTICLES-EN-REDACTIONS/ARTICLE_MVOTO/Paper2_JCIM/solvatochromic_tddft/opt_gap_geometries/20549/20549_opt E -1106.494172268494
  O      -2.888442     -3.991646     -1.054493
  C      -1.888953     -4.285834     -0.093916
  C      -2.009827     -3.425130      1.174939
  N      -1.934352     -1.999249      0.939551
  C      -0.791976     -1.281759      0.721839
  C       0.486263     -1.870153      0.945004
  C       1.649067     -1.164860      0.787926
  C       1.657459      0.202585      0.388286
  C       0.398729      0.822219      0.130576
  C      -0.826275      0.078531      0.295997
  C      -2.122293      0.711464      0.016910
  O      -3.211846      0.116966      0.151335
  C      -2.142234      2.122172     -0.443188
  C      -0.950280      2.846186     -0.600724
  C       0.364516      2.221144     -0.313965
  O       1.394183      2.911511     -0.467338
  C      -0.997177      4.179806     -1.034143
  C      -2.220320      4.782919     -1.307309
  C      -3.411290      4.059540     -1.150125
  C      -3.372402      2.737288     -0.720336
  N       2.836245      0.883784      0.279165
  C       4.167012      0.334898      0.437597
  C       4.687293     -0.408780     -0.807830
  O       6.024400     -0.854222     -0.634042
  H      -3.750769     -4.223045     -0.674293
  H      -0.935677     -4.081726     -0.592643
  H      -1.895266     -5.351653      0.193145
  H      -2.982647     -3.619878      1.646633
  H      -1.254136     -3.739558      1.906787
  H      -2.774795     -1.509633      0.634327
  H       0.550578     -2.908690      1.250589
  H       2.589406     -1.671633      0.974490
  H      -0.061820      4.717214     -1.147656
  H      -2.252073      5.816359     -1.642695
  H      -4.366569      4.532007     -1.363937
  H      -4.278945      2.155989     -0.590825
  H       2.723275      1.841984     -0.049483
  H       4.208597     -0.330906      1.311988
  H       4.848889      1.164371      0.650854
  H       4.008885     -1.236674     -1.067866
  H       4.703693      0.277843     -1.659794
  H       6.021872     -1.561752      0.029356
42
Coordinates from ORCA-job /home/tchapet/Post-Doc/ARTICLES-DOSSIERS-DES-ARTICLES-EN-REDACTION/NOUVELS-AXES-DE-RECHERCHE-A-REGARDER-URGEMMENT/ARTICLES-EN-REDACTIONS/ARTICLE_MVOTO/Paper2_JCIM/solvatochromic_tddft/opt_gap_geometries/20549/20549_opt E -1106.494177685183
  O      -2.920476     -3.980108     -1.044840
  C      -1.908358     -4.284495     -0.100394
  C      -2.006226     -3.428835      1.173857
  N      -1.930572     -2.002017      0.942840
  C      -0.789132     -1.283739      0.721627
  C       0.490105     -1.871802      0.940140
  C       1.652422     -1.166063      0.779241
  C       1.658539      0.201121      0.379179
  C       0.399071      0.819831      0.124836
  C      -0.825361      0.076407      0.295028
  C      -2.122169      0.710226      0.020515
  O      -3.211047      0.114264      0.150715
  C      -2.142686      2.120397     -0.441295
  C      -0.950864      2.844235     -0.602140
  C       0.364127      2.218508     -0.319740
  O       1.394136      2.907601     -0.476410
  C      -0.998466      4.177938     -1.035419
  C      -2.222086      4.781058     -1.305601
  C      -3.412885      4.057749     -1.145599
  C      -3.373381      2.735673     -0.715819
  N       2.836008      0.881978      0.260639
  C       4.167727      0.341208      0.435265
  C       4.703486     -0.408799     -0.799580
  O       6.041178     -0.846151     -0.610600
  H      -3.777945     -4.212452     -0.654727
  H      -0.961355     -4.083443     -0.611884
  H      -1.916695     -5.351575      0.181156
  H      -2.971967     -3.622326      1.660213
  H      -1.239918     -3.747287      1.892351
  H      -2.772290     -1.515855      0.637330
  H       0.556297     -2.910609      1.244057
  H       2.593691     -1.672936      0.961042
  H      -0.062987      4.714562     -1.151473
  H      -2.254503      5.814569     -1.640881
  H      -4.368646      4.530433     -1.357053
  H      -4.279425      2.154123     -0.583866
  H       2.721095      1.841263     -0.063981
  H       4.204946     -0.317712      1.315037
  H       4.843120      1.175883      0.648664
  H       4.031645     -1.242033     -1.059966
  H       4.724072      0.271669     -1.656146
  H       6.037775     -1.542461      0.064375
42
Coordinates from ORCA-job /home/tchapet/Post-Doc/ARTICLES-DOSSIERS-DES-ARTICLES-EN-REDACTION/NOUVELS-AXES-DE-RECHERCHE-A-REGARDER-URGEMMENT/ARTICLES-EN-REDACTIONS/ARTICLE_MVOTO/Paper2_JCIM/solvatochromic_tddft/opt_gap_geometries/20549/20549_opt E -1106.494184717674
  O      -2.926704     -3.978367     -1.044483
  C      -1.911310     -4.284589     -0.104008
  C      -2.004166     -3.430072      1.171424
  N      -1.928633     -2.002539      0.941495
  C      -0.787294     -1.282658      0.720780
  C       0.492124     -1.868943      0.941933
  C       1.654091     -1.163093      0.778577
  C       1.659286      0.202451      0.373890
  C       0.399418      0.820538      0.119204
  C      -0.824781      0.076635      0.291521
  C      -2.122153      0.709534      0.016971
  O      -3.211014      0.114766      0.153371
  C      -2.143939      2.120769     -0.441515
  C      -0.952535      2.844959     -0.604530
  C       0.363198      2.218840     -0.326807
  O       1.392881      2.907823     -0.486767
  C      -1.001445      4.179295     -1.035858
  C      -2.225824      4.782726     -1.301646
  C      -3.416174      4.059173     -1.139122
  C      -3.375438      2.736553     -0.711358
  N       2.837367      0.881682      0.249395
  C       4.168560      0.342637      0.432354
  C       4.708635     -0.416558     -0.794745
  O       6.045855     -0.851741     -0.597717
  H      -3.782827     -4.213552     -0.652657
  H      -0.965869     -4.084982     -0.618975
  H      -1.920175     -5.351867      0.177010
  H      -2.968978     -3.623547      1.660036
  H      -1.236372     -3.749949      1.887319
  H      -2.771648     -1.517220      0.637069
  H       0.558803     -2.906516      1.249184
  H       2.595896     -1.668516      0.961410
  H      -0.066210      4.715993     -1.153569
  H      -2.259370      5.816637     -1.635528
  H      -4.372471      4.532178     -1.347366
  H      -4.281001      2.154624     -0.577584
  H       2.722903      1.841830     -0.073959
  H       4.203439     -0.309359      1.317392
  H       4.842955      1.179518      0.641271
  H       4.038242     -1.252170     -1.051596
  H       4.731775      0.257553     -1.656373
  H       6.040901     -1.540478      0.085249
42
Coordinates from ORCA-job /home/tchapet/Post-Doc/ARTICLES-DOSSIERS-DES-ARTICLES-EN-REDACTION/NOUVELS-AXES-DE-RECHERCHE-A-REGARDER-URGEMMENT/ARTICLES-EN-REDACTIONS/ARTICLE_MVOTO/Paper2_JCIM/solvatochromic_tddft/opt_gap_geometries/20549/20549_opt E -1106.494187417039
  O      -2.919127     -3.982062     -1.047537
  C      -1.905829     -4.284671     -0.103611
  C      -2.004183     -3.428774      1.170414
  N      -1.929137     -2.001478      0.939038
  C      -0.787893     -1.281456      0.719423
  C       0.491254     -1.866871      0.943795
  C       1.653267     -1.161477      0.779467
  C       1.658846      0.202959      0.371205
  C       0.399036      0.821430      0.117133
  C      -0.825363      0.077518      0.289900
  C      -2.122928      0.710549      0.017235
  O      -3.211605      0.115303      0.153294
  C      -2.144734      2.122195     -0.440551
  C      -0.953411      2.846413     -0.603978
  C       0.362808      2.220023     -0.327823
  O       1.392359      2.909055     -0.487943
  C      -1.002620      4.180946     -1.034510
  C      -2.227163      4.784578     -1.299282
  C      -3.417428      4.060961     -1.136391
  C      -3.376367      2.738124     -0.709257
  N       2.837300      0.881461      0.244968
  C       4.168105      0.342122      0.429807
  C       4.707284     -0.422824     -0.794081
  O       6.044450     -0.857729     -0.595286
  H      -3.775782     -4.220260     -0.658595
  H      -0.959402     -4.084471     -0.616608
  H      -1.913397     -5.351426      0.179733
  H      -2.970998     -3.622675      1.655050
  H      -1.239321     -3.748107      1.889643
  H      -2.771931     -1.516053      0.633871
  H       0.557198     -2.903531      1.254293
  H       2.595123     -1.665883      0.964489
  H      -0.067423      4.717719     -1.152284
  H      -2.261018      5.818569     -1.632832
  H      -4.373776      4.534118     -1.343967
  H      -4.281851      2.156213     -0.574849
  H       2.722890      1.841286     -0.079190
  H       4.203013     -0.306005      1.317738
  H       4.843230      1.179500      0.634495
  H       4.036655     -1.259176     -1.047593
  H       4.730726      0.247599     -1.658652
  H       6.039146     -1.543715      0.090523
42
Coordinates from ORCA-job /home/tchapet/Post-Doc/ARTICLES-DOSSIERS-DES-ARTICLES-EN-REDACTION/NOUVELS-AXES-DE-RECHERCHE-A-REGARDER-URGEMMENT/ARTICLES-EN-REDACTIONS/ARTICLE_MVOTO/Paper2_JCIM/solvatochromic_tddft/opt_gap_geometries/20549/20549_opt E -1106.494187971702
  O      -2.917728     -3.982665     -1.047771
  C      -1.903860     -4.283933     -0.104036
  C      -2.003388     -3.428225      1.169954
  N      -1.929045     -2.001047      0.938371
  C      -0.787961     -1.280731      0.718972
  C       0.491198     -1.865900      0.943632
  C       1.653119     -1.160768      0.778131
  C       1.658633      0.203230      0.368428
  C       0.398721      0.821988      0.115424
  C      -0.825672      0.078119      0.289129
  C      -2.123390      0.711162      0.017266
  O      -3.211938      0.115563      0.152661
  C      -2.145396      2.123054     -0.439883
  C      -0.954242      2.847355     -0.603603
  C       0.362274      2.220751     -0.328887
  O       1.391647      2.909807     -0.489771
  C      -1.003755      4.182043     -1.033499
  C      -2.228469      4.785817     -1.297371
  C      -3.418598      4.062074     -1.134262
  C      -3.377178      2.738997     -0.707768
  N       2.837196      0.881018      0.239256
  C       4.167735      0.342337      0.427852
  C       4.708024     -0.427676     -0.792342
  O       6.045034     -0.861731     -0.590410
  H      -3.773681     -4.224637     -0.659695
  H      -0.957823     -4.082521     -0.617317
  H      -1.909950     -5.350674      0.179556
  H      -2.970373     -3.622886      1.653929
  H      -1.238841     -3.747460      1.889595
  H      -2.771704     -1.515761      0.632864
  H       0.556978     -2.902246      1.255355
  H       2.595127     -1.664848      0.963207
  H      -0.068674      4.718983     -1.151538
  H      -2.262607      5.819931     -1.630485
  H      -4.375030      4.535312     -1.341217
  H      -4.282615      2.157060     -0.573156
  H       2.722424      1.840958     -0.083958
  H       4.201633     -0.302234      1.318504
  H       4.842894      1.180367      0.629539
  H       4.037810     -1.265092     -1.043326
  H       4.732419      0.239204     -1.659629
  H       6.039048     -1.544093      0.098991
42
Coordinates from ORCA-job /home/tchapet/Post-Doc/ARTICLES-DOSSIERS-DES-ARTICLES-EN-REDACTION/NOUVELS-AXES-DE-RECHERCHE-A-REGARDER-URGEMMENT/ARTICLES-EN-REDACTIONS/ARTICLE_MVOTO/Paper2_JCIM/solvatochromic_tddft/opt_gap_geometries/20549/20549_opt E -1106.494188814470
  O      -2.917154     -3.984028     -1.047265
  C      -1.903100     -4.284214     -0.103375
  C      -2.003258     -3.427790      1.170123
  N      -1.929219     -2.000836      0.937704
  C      -0.788196     -1.280526      0.717855
  C       0.491072     -1.865646      0.942319
  C       1.652942     -1.160658      0.776159
  C       1.658442      0.203197      0.365829
  C       0.398440      0.822074      0.113555
  C      -0.825929      0.078328      0.287890
  C      -2.123705      0.711478      0.016454
  O      -3.212221      0.115843      0.151615
  C      -2.145807      2.123632     -0.439912
  C      -0.954721      2.847941     -0.603674
  C       0.361928      2.221028     -0.330104
  O       1.391218      2.910036     -0.491419
  C      -1.004329      4.182896     -1.032659
  C      -2.229130      4.786972     -1.295540
  C      -3.419226      4.063199     -1.132415
  C      -3.377669      2.739795     -0.706862
  N       2.837017      0.880590      0.235092
  C       4.167367      0.342548      0.426789
  C       4.709346     -0.430113     -0.791005
  O       6.046225     -0.863443     -0.586469
  H      -3.772715     -4.228544     -0.659992
  H      -0.957233     -4.082279     -0.616717
  H      -1.908411     -5.350801      0.180732
  H      -2.970218     -3.622557      1.654019
  H      -1.238795     -3.746456      1.890158
  H      -2.771856     -1.515624      0.632139
  H       0.556841     -2.901848      1.254534
  H       2.595012     -1.664688      0.961108
  H      -0.069312      4.719905     -1.150890
  H      -2.263361      5.821336     -1.627876
  H      -4.375717      4.536663     -1.338588
  H      -4.283130      2.157875     -0.572358
  H       2.722118      1.840904     -0.086797
  H       4.200149     -0.300057      1.318950
  H       4.842278      1.181002      0.627341
  H       4.039691     -1.268247     -1.041002
  H       4.734742      0.234816     -1.659728
  H       6.039586     -1.543701      0.104976
