52
17574 RDKit ETKDGv3(seed=42)+UFF
C      7.29066545     0.56489320     1.12579750
C      6.00436285    -0.00641256     0.60851950
O      6.02600311    -1.14706874     0.07010796
N      4.75676918     0.71386455     0.72687576
C      3.55704967     0.18344715     0.12936040
C      3.53002742    -0.14664633    -1.23437428
C      2.36462741    -0.65198680    -1.81695676
C      1.20362058    -0.83059831    -1.05027456
C      1.23300937    -0.50492911     0.31911724
C      2.39849677     0.00134668     0.90061957
N      0.01478469    -1.34542175    -1.68054999
C     -1.25009745    -1.45791162    -1.01117013
C     -1.73877233    -2.73688834    -0.75230134
C     -2.93944612    -2.92747500    -0.06854813
C     -3.65601158    -1.81004550     0.41384558
C     -3.14478898    -0.49844678     0.20139915
C     -1.98415949    -0.32037341    -0.59386927
C     -1.58607477     1.05758945    -1.00658821
O     -0.70038877     1.22967875    -1.88774202
C     -2.27156155     2.23837680    -0.43953589
C     -1.87090535     3.54039843    -0.79538464
C     -2.52168276     4.65243230    -0.25752452
C     -3.57613943     4.47915762     0.63834343
C     -3.98294751     3.19325610     0.99966436
C     -3.33632065     2.06334485     0.46332433
C     -3.75712458     0.69929859     0.85166069
O     -4.58320404     0.56356976     1.79470553
N     -4.92467303    -2.00591106     1.05736560
S     -3.53221089    -4.58090712     0.15013669
O     -3.48340744    -4.94029547     1.60875811
O     -4.94441882    -4.68049860    -0.35541137
O     -2.57434431    -5.66171876    -0.71283443
C      4.66943143     1.91810067     1.56023736
H      7.20351032     0.77062216     2.21289388
H      7.52720025     1.50502746     0.58569806
H      8.12589062    -0.15064098     0.96924172
H      4.40952713     0.00002746    -1.84855602
H      2.36315486    -0.89522541    -2.87205587
H      0.36171833    -0.64577573     0.94441579
H      2.40263837     0.24043856     1.95657110
H      0.10511169    -1.80309602    -2.61602316
H     -1.16767962    -3.59059889    -1.09401472
H     -1.05334122     3.70015502    -1.48714942
H     -2.20733140     5.65014390    -0.53564715
H     -4.07926593     5.34259501     1.05420167
H     -4.80481019     3.08386035     1.69612001
H     -5.13116776    -2.86324760     1.61394317
H     -5.71749358    -1.34912194     0.88667980
H     -2.96352251    -6.55353943    -0.52723849
H      4.75717871     1.63943290     2.63132070
H      5.47648629     2.63160994     1.29364080
H      3.70202758     2.44211359     1.40316244
