52
Coordinates from ORCA-job /home/tchapet/Post-Doc/ARTICLES-DOSSIERS-DES-ARTICLES-EN-REDACTION/NOUVELS-AXES-DE-RECHERCHE-A-REGARDER-URGEMMENT/ARTICLES-EN-REDACTIONS/ARTICLE_MVOTO/Paper2_JCIM/solvatochromic_tddft/opt_new_geometries/17574/17574_opt E -1900.634195697846
  C       7.290665      0.564893      1.125798
  C       6.004363     -0.006413      0.608519
  O       6.026003     -1.147069      0.070108
  N       4.756769      0.713865      0.726876
  C       3.557050      0.183447      0.129360
  C       3.530027     -0.146646     -1.234374
  C       2.364627     -0.651987     -1.816957
  C       1.203621     -0.830598     -1.050275
  C       1.233009     -0.504929      0.319117
  C       2.398497      0.001347      0.900620
  N       0.014785     -1.345422     -1.680550
  C      -1.250097     -1.457912     -1.011170
  C      -1.738772     -2.736888     -0.752301
  C      -2.939446     -2.927475     -0.068548
  C      -3.656012     -1.810045      0.413846
  C      -3.144789     -0.498447      0.201399
  C      -1.984159     -0.320373     -0.593869
  C      -1.586075      1.057589     -1.006588
  O      -0.700389      1.229679     -1.887742
  C      -2.271562      2.238377     -0.439536
  C      -1.870905      3.540398     -0.795385
  C      -2.521683      4.652432     -0.257525
  C      -3.576139      4.479158      0.638343
  C      -3.982948      3.193256      0.999664
  C      -3.336321      2.063345      0.463324
  C      -3.757125      0.699299      0.851661
  O      -4.583204      0.563570      1.794706
  N      -4.924673     -2.005911      1.057366
  S      -3.532211     -4.580907      0.150137
  O      -3.483407     -4.940295      1.608758
  O      -4.944419     -4.680499     -0.355411
  O      -2.574344     -5.661719     -0.712834
  C       4.669431      1.918101      1.560237
  H       7.203510      0.770622      2.212894
  H       7.527200      1.505027      0.585698
  H       8.125891     -0.150641      0.969242
  H       4.409527      0.000027     -1.848556
  H       2.363155     -0.895225     -2.872056
  H       0.361718     -0.645776      0.944416
  H       2.402638      0.240439      1.956571
  H       0.105112     -1.803096     -2.616023
  H      -1.167680     -3.590599     -1.094015
  H      -1.053341      3.700155     -1.487149
  H      -2.207331      5.650144     -0.535647
  H      -4.079266      5.342595      1.054202
  H      -4.804810      3.083860      1.696120
  H      -5.131168     -2.863248      1.613943
  H      -5.717494     -1.349122      0.886680
  H      -2.963523     -6.553539     -0.527238
  H       4.757179      1.639433      2.631321
  H       5.476486      2.631610      1.293641
  H       3.702028      2.442114      1.403162
52
Coordinates from ORCA-job /home/tchapet/Post-Doc/ARTICLES-DOSSIERS-DES-ARTICLES-EN-REDACTION/NOUVELS-AXES-DE-RECHERCHE-A-REGARDER-URGEMMENT/ARTICLES-EN-REDACTIONS/ARTICLE_MVOTO/Paper2_JCIM/solvatochromic_tddft/opt_new_geometries/17574/17574_opt E -1900.666708349277
  C       7.259090      0.560975      1.111367
  C       5.987738     -0.049343      0.582977
  O       6.006158     -1.165394      0.053674
  N       4.785237      0.669803      0.702882
  C       3.581247      0.148561      0.125762
  C       3.534900     -0.201233     -1.229126
  C       2.359310     -0.694930     -1.790753
  C       1.202820     -0.843976     -1.011892
  C       1.249796     -0.498801      0.347452
  C       2.428963     -0.005422      0.906868
  N       0.027260     -1.344956     -1.617399
  C      -1.233164     -1.436538     -0.973216
  C      -1.729986     -2.714416     -0.720276
  C      -2.944130     -2.900945     -0.065879
  C      -3.683352     -1.798872      0.414263
  C      -3.167676     -0.485362      0.208774
  C      -1.984809     -0.302715     -0.568127
  C      -1.584209      1.079651     -0.981138
  O      -0.701068      1.267143     -1.828183
  C      -2.294357      2.248721     -0.422792
  C      -1.893968      3.545469     -0.775744
  C      -2.562050      4.651589     -0.253108
  C      -3.635568      4.471870      0.625679
  C      -4.039496      3.186131      0.981988
  C      -3.373547      2.067903      0.460073
  C      -3.803016      0.707680      0.850328
  O      -4.645861      0.590801      1.752628
  N      -4.908894     -2.021657      1.029659
  S      -3.551941     -4.547933      0.152773
  O      -3.490089     -4.916229      1.592623
  O      -4.909117     -4.681078     -0.437552
  O      -2.488509     -5.499056     -0.706111
  C       4.724285      1.881106      1.524279
  H       7.172466      0.776143      2.187938
  H       7.486154      1.498455      0.579583
  H       8.087774     -0.138112      0.958454
  H       4.413097     -0.079054     -1.851910
  H       2.341969     -0.955062     -2.844949
  H       0.379909     -0.618923      0.982931
  H       2.448778      0.248049      1.961906
  H       0.120615     -1.803653     -2.518275
  H      -1.151748     -3.570924     -1.048785
  H      -1.062099      3.695264     -1.454726
  H      -2.247562      5.653093     -0.529293
  H      -4.155665      5.333654      1.031853
  H      -4.873132      3.057705      1.663238
  H      -5.094392     -2.882191      1.533119
  H      -5.682404     -1.385010      0.895154
  H      -2.819919     -6.411783     -0.566864
  H       4.812547      1.636447      2.595251
  H       5.529457      2.577239      1.247049
  H       3.772156      2.400118      1.359553
52
Coordinates from ORCA-job /home/tchapet/Post-Doc/ARTICLES-DOSSIERS-DES-ARTICLES-EN-REDACTION/NOUVELS-AXES-DE-RECHERCHE-A-REGARDER-URGEMMENT/ARTICLES-EN-REDACTIONS/ARTICLE_MVOTO/Paper2_JCIM/solvatochromic_tddft/opt_new_geometries/17574/17574_opt E -1900.678121180198
  C       7.252058      0.609155      1.097297
  C       5.998353     -0.049899      0.551974
  O       6.038936     -1.152413      0.027132
  N       4.816718      0.664221      0.669899
  C       3.606442      0.135662      0.118787
  C       3.536697     -0.245093     -1.225974
  C       2.351665     -0.738288     -1.759273
  C       1.199748     -0.861053     -0.964759
  C       1.269726     -0.483415      0.383304
  C       2.462357      0.008189      0.913058
  N       0.033492     -1.367020     -1.541649
  C      -1.228695     -1.445189     -0.922159
  C      -1.746093     -2.721919     -0.685844
  C      -2.981439     -2.898233     -0.078190
  C      -3.740153     -1.801794      0.404043
  C      -3.200400     -0.491002      0.211632
  C      -1.990354     -0.316023     -0.530636
  C      -1.557276      1.062907     -0.939386
  O      -0.653312      1.241193     -1.744910
  C      -2.281954      2.234145     -0.389966
  C      -1.859068      3.524447     -0.729512
  C      -2.531902      4.633628     -0.223198
  C      -3.633152      4.460328      0.625776
  C      -4.056964      3.178371      0.967669
  C      -3.384556      2.059880      0.461605
  C      -3.850430      0.702063      0.844107
  O      -4.728161      0.603108      1.697902
  N      -4.940178     -2.035862      1.003293
  S      -3.630515     -4.536681      0.119907
  O      -3.596605     -4.918040      1.539161
  O      -4.912295     -4.685534     -0.577206
  O      -2.469462     -5.375295     -0.697808
  C       4.753059      1.890536      1.468177
  H       7.162545      0.832030      2.167067
  H       7.465389      1.549390      0.574077
  H       8.087228     -0.074112      0.947315
  H       4.410258     -0.148155     -1.860373
  H       2.316412     -1.022539     -2.808540
  H       0.405496     -0.583265      1.031798
  H       2.499899      0.283189      1.963695
  H       0.134024     -1.837266     -2.427405
  H      -1.167048     -3.581804     -1.001228
  H      -1.005431      3.651674     -1.386477
  H      -2.200474      5.634013     -0.488659
  H      -4.159140      5.325831      1.019830
  H      -4.908603      3.038669      1.624630
  H      -5.126919     -2.918665      1.451424
  H      -5.701104     -1.385144      0.930151
  H      -2.744785     -6.310269     -0.615930
  H       4.841500      1.689218      2.544311
  H       5.546201      2.586704      1.177986
  H       3.798263      2.385418      1.286055
52
Coordinates from ORCA-job /home/tchapet/Post-Doc/ARTICLES-DOSSIERS-DES-ARTICLES-EN-REDACTION/NOUVELS-AXES-DE-RECHERCHE-A-REGARDER-URGEMMENT/ARTICLES-EN-REDACTIONS/ARTICLE_MVOTO/Paper2_JCIM/solvatochromic_tddft/opt_new_geometries/17574/17574_opt E -1900.684557767155
  C       7.274749      0.643157      1.100933
  C       6.028852     -0.022927      0.527696
  O       6.085126     -1.117534     -0.011745
  N       4.847739      0.694042      0.635403
  C       3.633198      0.147126      0.109326
  C       3.553632     -0.282323     -1.220820
  C       2.363477     -0.784490     -1.730512
  C       1.211241     -0.873054     -0.928841
  C       1.291286     -0.444791      0.403785
  C       2.490995      0.053261      0.910332
  N       0.047859     -1.404838     -1.480327
  C      -1.221301     -1.463535     -0.878040
  C      -1.762977     -2.738627     -0.669140
  C      -3.020252     -2.906044     -0.112501
  C      -3.776240     -1.808014      0.384818
  C      -3.217036     -0.501920      0.208086
  C      -1.985612     -0.332360     -0.497916
  C      -1.531438      1.047463     -0.897896
  O      -0.603827      1.225902     -1.674351
  C      -2.267879      2.218897     -0.355252
  C      -1.830167      3.508467     -0.679223
  C      -2.507955      4.618465     -0.182076
  C      -3.629278      4.446390      0.640939
  C      -4.067059      3.165092      0.966491
  C      -3.388189      2.045882      0.469888
  C      -3.882019      0.687510      0.830109
  O      -4.812866      0.591452      1.626147
  N      -4.962731     -2.043140      1.007008
  S      -3.725677     -4.535799      0.044078
  O      -3.803464     -4.908914      1.457394
  O      -4.928021     -4.671422     -0.772460
  O      -2.508015     -5.385690     -0.664959
  C       4.773057      1.939799      1.402253
  H       7.176033      0.857451      2.170741
  H       7.494297      1.589993      0.594285
  H       8.110764     -0.039286      0.951413
  H       4.427657     -0.220163     -1.859158
  H       2.320380     -1.105886     -2.769204
  H       0.428643     -0.518634      1.058509
  H       2.536208      0.360445      1.952098
  H       0.156126     -1.902712     -2.350271
  H      -1.186186     -3.600486     -0.978195
  H      -0.960614      3.623687     -1.317680
  H      -2.165387      5.618728     -0.434573
  H      -4.160375      5.312782      1.026785
  H      -4.932975      3.016260      1.602655
  H      -5.175176     -2.956058      1.376407
  H      -5.685189     -1.348546      1.059064
  H      -2.782637     -6.322766     -0.610118
  H       4.857691      1.776050      2.484585
  H       5.558667      2.637033      1.097728
  H       3.812863      2.414626      1.200278
52
Coordinates from ORCA-job /home/tchapet/Post-Doc/ARTICLES-DOSSIERS-DES-ARTICLES-EN-REDACTION/NOUVELS-AXES-DE-RECHERCHE-A-REGARDER-URGEMMENT/ARTICLES-EN-REDACTIONS/ARTICLE_MVOTO/Paper2_JCIM/solvatochromic_tddft/opt_new_geometries/17574/17574_opt E -1900.691153181372
  C       7.300600      0.683958      1.109096
  C       6.064909      0.014847      0.504570
  O       6.132964     -1.088274     -0.018405
  N       4.883346      0.737452      0.588046
  C       3.663339      0.167851      0.093930
  C       3.575411     -0.334437     -1.211451
  C       2.379439     -0.850878     -1.689637
  C       1.225710     -0.886689     -0.883738
  C       1.314756     -0.384549      0.422650
  C       2.520794      0.126279      0.899083
  N       0.062344     -1.452745     -1.401121
  C      -1.216735     -1.485416     -0.823148
  C      -1.790677     -2.758133     -0.662203
  C      -3.062434     -2.916906     -0.150780
  C      -3.805894     -1.820408      0.384679
  C      -3.235448     -0.515973      0.213749
  C      -1.980268     -0.352901     -0.449032
  C      -1.499017      1.024926     -0.832145
  O      -0.538838      1.199447     -1.570559
  C      -2.249345      2.197827     -0.305421
  C      -1.787807      3.486695     -0.603251
  C      -2.472056      4.598927     -0.121028
  C      -3.624477      4.430671      0.658613
  C      -4.086803      3.151263      0.955006
  C      -3.399515      2.028607      0.473984
  C      -3.936330      0.672242      0.788027
  O      -4.936045      0.584501      1.503036
  N      -4.967203     -2.064842      1.042157
  S      -3.839417     -4.532002     -0.077749
  O      -4.078385     -4.901577      1.315131
  O      -4.931782     -4.628731     -1.034698
  O      -2.577692     -5.421718     -0.642713
  C       4.800594      2.011594      1.304920
  H       7.176700      0.913679      2.173372
  H       7.545599      1.623920      0.601346
  H       8.131667     -0.011950      0.988865
  H       4.450643     -0.321903     -1.850231
  H       2.328742     -1.227739     -2.709444
  H       0.451573     -0.416945      1.080388
  H       2.571217      0.485122      1.924069
  H       0.181256     -1.995294     -2.244498
  H      -1.221516     -3.622242     -0.978490
  H      -0.894012      3.585882     -1.210299
  H      -2.111404      5.598123     -0.351397
  H      -4.161568      5.299189      1.031010
  H      -4.977407      2.993696      1.553903
  H      -5.205721     -3.003446      1.327477
  H      -5.609504     -1.333151      1.289799
  H      -2.864695     -6.356256     -0.628768
  H       4.873772      1.898588      2.395016
  H       5.587289      2.699511      0.980900
  H       3.839328      2.470310      1.071360
52
Coordinates from ORCA-job /home/tchapet/Post-Doc/ARTICLES-DOSSIERS-DES-ARTICLES-EN-REDACTION/NOUVELS-AXES-DE-RECHERCHE-A-REGARDER-URGEMMENT/ARTICLES-EN-REDACTIONS/ARTICLE_MVOTO/Paper2_JCIM/solvatochromic_tddft/opt_new_geometries/17574/17574_opt E -1900.695053460528
  C       7.342090      0.675720      1.100630
  C       6.102292      0.007703      0.500747
  O       6.172055     -1.090535     -0.033636
  N       4.926141      0.742581      0.566215
  C       3.698850      0.169145      0.093139
  C       3.606056     -0.392302     -1.188527
  C       2.402505     -0.909241     -1.645753
  C       1.245110     -0.887408     -0.844619
  C       1.339591     -0.326216      0.437080
  C       2.552733      0.183280      0.894759
  N       0.078592     -1.472190     -1.337138
  C      -1.209418     -1.481844     -0.783023
  C      -1.810168     -2.752991     -0.671113
  C      -3.083377     -2.912214     -0.172898
  C      -3.808050     -1.819527      0.409221
  C      -3.238733     -0.519008      0.232517
  C      -1.972366     -0.350843     -0.404452
  C      -1.491933      1.029943     -0.773597
  O      -0.509370      1.213606     -1.482125
  C      -2.272029      2.194946     -0.269321
  C      -1.811769      3.489594     -0.549550
  C      -2.522119      4.594671     -0.090500
  C      -3.700479      4.415381      0.647238
  C      -4.163190      3.132362      0.923974
  C      -3.447564      2.015166      0.468297
  C      -3.986226      0.653708      0.751905
  O      -5.060878      0.550815      1.356453
  N      -4.941590     -2.047036      1.109498
  S      -3.898908     -4.516049     -0.193520
  O      -4.286084     -4.891573      1.165384
  O      -4.882878     -4.581511     -1.263583
  O      -2.603220     -5.430065     -0.625795
  C       4.853310      2.037213      1.245737
  H       7.221149      0.910095      2.164457
  H       7.592075      1.613325      0.590097
  H       8.168627     -0.026271      0.979286
  H       4.484727     -0.429075     -1.821124
  H       2.347071     -1.332762     -2.646943
  H       0.472723     -0.314464      1.090577
  H       2.605436      0.585931      1.903117
  H       0.207936     -2.063204     -2.146836
  H      -1.251101     -3.616645     -1.009012
  H      -0.898393      3.589352     -1.126678
  H      -2.163255      5.597567     -0.306700
  H      -4.257455      5.279230      1.000493
  H      -5.073584      2.959094      1.487602
  H      -5.199201     -2.988893      1.370762
  H      -5.448189     -1.288309      1.539102
  H      -2.894664     -6.362433     -0.655898
  H       4.910733      1.956795      2.340136
  H       5.655045      2.703760      0.912809
  H       3.901339      2.501625      0.985089
52
Coordinates from ORCA-job /home/tchapet/Post-Doc/ARTICLES-DOSSIERS-DES-ARTICLES-EN-REDACTION/NOUVELS-AXES-DE-RECHERCHE-A-REGARDER-URGEMMENT/ARTICLES-EN-REDACTIONS/ARTICLE_MVOTO/Paper2_JCIM/solvatochromic_tddft/opt_new_geometries/17574/17574_opt E -1900.696527834141
  C       7.302910      0.735632      1.123645
  C       6.083608      0.063298      0.493420
  O       6.157392     -1.064513      0.024699
  N       4.901431      0.791911      0.518680
  C       3.681140      0.192119      0.062496
  C       3.603433     -0.435890     -1.188949
  C       2.404415     -0.976554     -1.631628
  C       1.239383     -0.911804     -0.845514
  C       1.318291     -0.283533      0.405393
  C       2.526086      0.249348      0.849917
  N       0.079115     -1.526414     -1.319370
  C      -1.214113     -1.518985     -0.780809
  C      -1.837857     -2.781838     -0.691821
  C      -3.110621     -2.932061     -0.190772
  C      -3.822138     -1.833336      0.396350
  C      -3.238129     -0.536716      0.226271
  C      -1.960410     -0.380916     -0.394370
  C      -1.456956      0.993248     -0.738579
  O      -0.443788      1.168269     -1.406965
  C      -2.223146      2.164400     -0.231051
  C      -1.726017      3.454256     -0.468548
  C      -2.416835      4.564451      0.006738
  C      -3.611693      4.396241      0.720535
  C      -4.111684      3.119143      0.954780
  C      -3.417912      1.996064      0.479391
  C      -3.991669      0.642627      0.713655
  O      -5.066993      0.549381      1.322506
  N      -4.975521     -2.035602      1.068186
  S      -3.943518     -4.522483     -0.258417
  O      -4.479651     -4.860960      1.062443
  O      -4.816766     -4.598469     -1.422758
  O      -2.625861     -5.467905     -0.529989
  C       4.818450      2.110007      1.150559
  H       7.132120      1.016438      2.169502
  H       7.592614      1.646022      0.585620
  H       8.122956      0.017731      1.074873
  H       4.489078     -0.506849     -1.808305
  H       2.360104     -1.451910     -2.609765
  H       0.443608     -0.235929      1.046336
  H       2.566635      0.705669      1.835533
  H       0.222355     -2.166457     -2.088295
  H      -1.292881     -3.649971     -1.042761
  H      -0.799510      3.546623     -1.025610
  H      -2.029268      5.563288     -0.175982
  H      -4.151765      5.264833      1.088049
  H      -5.036997      2.955685      1.496744
  H      -5.257380     -2.973556      1.321762
  H      -5.413129     -1.255417      1.539815
  H      -2.931499     -6.395013     -0.577268
  H       4.852540      2.065463      2.248055
  H       5.630826      2.760047      0.811592
  H       3.875218      2.570886      0.853962
52
Coordinates from ORCA-job /home/tchapet/Post-Doc/ARTICLES-DOSSIERS-DES-ARTICLES-EN-REDACTION/NOUVELS-AXES-DE-RECHERCHE-A-REGARDER-URGEMMENT/ARTICLES-EN-REDACTIONS/ARTICLE_MVOTO/Paper2_JCIM/solvatochromic_tddft/opt_new_geometries/17574/17574_opt E -1900.698266574548
  C       7.332181      0.653623      1.110872
  C       6.101444      0.016204      0.478635
  O       6.163328     -1.090178     -0.041616
  N       4.921546      0.748647      0.536875
  C       3.694793      0.175547      0.068391
  C       3.609065     -0.426054     -1.194981
  C       2.401337     -0.941449     -1.647144
  C       1.238880     -0.869477     -0.860557
  C       1.326404     -0.270759      0.403939
  C       2.541667      0.235122      0.859345
  N       0.071508     -1.468854     -1.346816
  C      -1.221018     -1.470786     -0.808253
  C      -1.831340     -2.738554     -0.724484
  C      -3.078288     -2.917299     -0.170007
  C      -3.794519     -1.832047      0.429433
  C      -3.232355     -0.519696      0.259280
  C      -1.969402     -0.342734     -0.395625
  C      -1.509127      1.033585     -0.758933
  O      -0.536063      1.220057     -1.485131
  C      -2.290957      2.195055     -0.263181
  C      -1.830009      3.491636     -0.534952
  C      -2.529419      4.594247     -0.055415
  C      -3.696517      4.412578      0.699741
  C      -4.162235      3.129400      0.967484
  C      -3.461936      2.013527      0.484790
  C      -3.991435      0.653924      0.754311
  O      -5.049262      0.553966      1.394760
  N      -4.967634     -2.043715      1.066857
  S      -3.865585     -4.520701     -0.256349
  O      -4.526819     -4.828586      1.020072
  O      -4.636092     -4.653299     -1.491446
  O      -2.513924     -5.454307     -0.369305
  C       4.860178      2.042665      1.219555
  H       7.171384      0.901112      2.167083
  H       7.621569      1.577328      0.594867
  H       8.148490     -0.065731      1.031992
  H       4.492505     -0.498335     -1.816596
  H       2.351624     -1.398739     -2.633330
  H       0.454903     -0.224416      1.047814
  H       2.588353      0.671957      1.853048
  H       0.223639     -2.144333     -2.083624
  H      -1.286619     -3.597687     -1.099694
  H      -0.922685      3.601244     -1.119583
  H      -2.169289      5.598000     -0.264795
  H      -4.241408      5.275562      1.073002
  H      -5.068015      2.961353      1.540203
  H      -5.240445     -2.984664      1.325579
  H      -5.388563     -1.244288      1.527586
  H      -2.812061     -6.383450     -0.432421
  H       4.879005      1.947337      2.314414
  H       5.694678      2.682139      0.916377
  H       3.934540      2.544323      0.931913
52
Coordinates from ORCA-job /home/tchapet/Post-Doc/ARTICLES-DOSSIERS-DES-ARTICLES-EN-REDACTION/NOUVELS-AXES-DE-RECHERCHE-A-REGARDER-URGEMMENT/ARTICLES-EN-REDACTIONS/ARTICLE_MVOTO/Paper2_JCIM/solvatochromic_tddft/opt_new_geometries/17574/17574_opt E -1900.698958226134
  C       7.302483      0.744348      1.062719
  C       6.070686      0.058117      0.492673
  O       6.147080     -1.055691     -0.008540
  N       4.881214      0.775845      0.529555
  C       3.664174      0.183268      0.064195
  C       3.596789     -0.462101     -1.178211
  C       2.395976     -0.998416     -1.626184
  C       1.226004     -0.905020     -0.854741
  C       1.293902     -0.261008      0.387687
  C       2.500830      0.269005      0.838391
  N       0.063627     -1.516578     -1.342145
  C      -1.231634     -1.509100     -0.816266
  C      -1.862966     -2.765623     -0.745900
  C      -3.111179     -2.933924     -0.185652
  C      -3.831957     -1.836340      0.381599
  C      -3.235362     -0.534635      0.246691
  C      -1.960431     -0.373103     -0.392154
  C      -1.465892      0.995214     -0.719301
  O      -0.452165      1.170066     -1.392105
  C      -2.224213      2.166230     -0.214729
  C      -1.728502      3.455532     -0.455412
  C      -2.411376      4.566070      0.029555
  C      -3.595910      4.399286      0.760930
  C      -4.095132      3.123034      1.000241
  C      -3.411356      1.999280      0.513784
  C      -3.962620      0.646315      0.766216
  O      -5.041827      0.557575      1.372941
  N      -5.040280     -2.015774      0.963495
  S      -3.880932     -4.537271     -0.292876
  O      -4.682321     -4.803404      0.912357
  O      -4.512545     -4.728730     -1.598542
  O      -2.521742     -5.465186     -0.214655
  C       4.806690      2.082936      1.186073
  H       7.161146      1.033438      2.110900
  H       7.558562      1.649516      0.498357
  H       8.133238      0.041466      0.993549
  H       4.486119     -0.549147     -1.788816
  H       2.360251     -1.487203     -2.597571
  H       0.414465     -0.191627      1.018519
  H       2.532321      0.744610      1.814517
  H       0.231889     -2.240663     -2.026709
  H      -1.329399     -3.632373     -1.121675
  H      -0.810029      3.559538     -1.023325
  H      -2.025562      5.564592     -0.158186
  H      -4.126481      5.268476      1.140421
  H      -5.013372      2.972319      1.557473
  H      -5.334184     -2.945921      1.233344
  H      -5.455352     -1.186383      1.375006
  H      -2.814882     -6.393095     -0.314163
  H       4.793381      2.004941      2.282305
  H       5.654310      2.709449      0.894881
  H       3.894468      2.587849      0.863461
52
Coordinates from ORCA-job /home/tchapet/Post-Doc/ARTICLES-DOSSIERS-DES-ARTICLES-EN-REDACTION/NOUVELS-AXES-DE-RECHERCHE-A-REGARDER-URGEMMENT/ARTICLES-EN-REDACTIONS/ARTICLE_MVOTO/Paper2_JCIM/solvatochromic_tddft/opt_new_geometries/17574/17574_opt E -1900.699488066527
  C       7.336176      0.653870      1.056487
  C       6.096708      0.004362      0.456106
  O       6.152459     -1.107384     -0.050826
  N       4.914244      0.729749      0.532324
  C       3.687274      0.166141      0.058019
  C       3.602120     -0.443544     -1.201364
  C       2.391237     -0.951846     -1.654058
  C       1.227673     -0.865866     -0.871736
  C       1.313264     -0.257785      0.387105
  C       2.530195      0.244701      0.842398
  N       0.056982     -1.453625     -1.369450
  C      -1.234360     -1.458335     -0.838328
  C      -1.849116     -2.723605     -0.758017
  C      -3.087410     -2.909688     -0.180195
  C      -3.829211     -1.818170      0.373429
  C      -3.250160     -0.513665      0.229254
  C      -1.981640     -0.331626     -0.415481
  C      -1.517407      1.044970     -0.754792
  O      -0.519290      1.238547     -1.444967
  C      -2.291362      2.202650     -0.240077
  C      -1.824142      3.500492     -0.489412
  C      -2.523291      4.598381      0.001610
  C      -3.697179      4.409644      0.745231
  C      -4.169328      3.124250      0.991105
  C      -3.467946      2.013679      0.500555
  C      -3.997032      0.649913      0.749530
  O      -5.063705      0.533097      1.375477
  N      -5.028813     -2.002621      0.967611
  S      -3.806332     -4.538119     -0.256413
  O      -4.651771     -4.784212      0.919722
  O      -4.357380     -4.811561     -1.581283
  O      -2.419365     -5.406562     -0.070525
  C       4.851811      2.008311      1.244495
  H       7.188382      0.932038      2.106347
  H       7.623433      1.560044      0.509821
  H       8.149638     -0.068786      0.988919
  H       4.485170     -0.524203     -1.821687
  H       2.342398     -1.413122     -2.638323
  H       0.440449     -0.197067      1.028128
  H       2.574468      0.692244      1.831250
  H       0.228875     -2.197553     -2.031302
  H      -1.303285     -3.586305     -1.125977
  H      -0.914305      3.621247     -1.067860
  H      -2.159252      5.603997     -0.192251
  H      -4.241414      5.268902      1.128211
  H      -5.079997      2.956630      1.555735
  H      -5.307806     -2.933702      1.245265
  H      -5.441060     -1.171183      1.381006
  H      -2.665732     -6.346256     -0.185877
  H       4.825407      1.885801      2.336214
  H       5.710387      2.633835      0.988825
  H       3.950339      2.538892      0.933998
52
Coordinates from ORCA-job /home/tchapet/Post-Doc/ARTICLES-DOSSIERS-DES-ARTICLES-EN-REDACTION/NOUVELS-AXES-DE-RECHERCHE-A-REGARDER-URGEMMENT/ARTICLES-EN-REDACTIONS/ARTICLE_MVOTO/Paper2_JCIM/solvatochromic_tddft/opt_new_geometries/17574/17574_opt E -1900.699995647333
  C       7.352577      0.643487      1.035530
  C       6.105464     -0.002456      0.441779
  O       6.161014     -1.103085     -0.089790
  N       4.925367      0.727501      0.526368
  C       3.694387      0.168194      0.056130
  C       3.605873     -0.454666     -1.197244
  C       2.391679     -0.957115     -1.646427
  C       1.227342     -0.856564     -0.866436
  C       1.315950     -0.235099      0.385169
  C       2.536102      0.262675      0.837159
  N       0.053195     -1.445395     -1.359918
  C      -1.236126     -1.451859     -0.824947
  C      -1.851154     -2.718369     -0.749502
  C      -3.095655     -2.905700     -0.189229
  C      -3.848073     -1.815861      0.357990
  C      -3.266807     -0.510630      0.220922
  C      -1.989442     -0.327467     -0.404660
  C      -1.510002      1.050000     -0.724806
  O      -0.516486      1.243988     -1.422193
  C      -2.293500      2.207160     -0.221196
  C      -1.824807      3.505702     -0.464714
  C      -2.529547      4.602705      0.021017
  C      -3.710852      4.412007      0.751933
  C      -4.184975      3.125741      0.990123
  C      -3.478336      2.016313      0.503712
  C      -4.020202      0.653014      0.730884
  O      -5.085804      0.539019      1.363038
  N      -5.052457     -2.009583      0.936048
  S      -3.798504     -4.544584     -0.269778
  O      -4.719536     -4.765138      0.851176
  O      -4.243663     -4.866097     -1.622171
  O      -2.419913     -5.392708      0.038988
  C       4.864273      2.003613      1.242801
  H       7.220968      0.911403      2.090173
  H       7.633692      1.555549      0.494870
  H       8.164502     -0.079584      0.947887
  H       4.489388     -0.549693     -1.815077
  H       2.340010     -1.427340     -2.626280
  H       0.442473     -0.162422      1.024437
  H       2.581749      0.718468      1.822084
  H       0.231069     -2.215916     -1.990820
  H      -1.301227     -3.581507     -1.110920
  H      -0.907868      3.625183     -1.032067
  H      -2.163708      5.608733     -0.166789
  H      -4.260421      5.270173      1.129514
  H      -5.102511      2.954560      1.542553
  H      -5.344162     -2.948849      1.172962
  H      -5.474582     -1.185743      1.361441
  H      -2.630423     -6.335784     -0.114189
  H       4.819902      1.879279      2.334017
  H       5.732161      2.622421      1.002707
  H       3.971607      2.542324      0.919717
52
Coordinates from ORCA-job /home/tchapet/Post-Doc/ARTICLES-DOSSIERS-DES-ARTICLES-EN-REDACTION/NOUVELS-AXES-DE-RECHERCHE-A-REGARDER-URGEMMENT/ARTICLES-EN-REDACTIONS/ARTICLE_MVOTO/Paper2_JCIM/solvatochromic_tddft/opt_new_geometries/17574/17574_opt E -1900.700472806788
  C       7.361744      0.631009      1.022330
  C       6.115094      0.000022      0.408770
  O       6.171122     -1.095169     -0.135057
  N       4.933609      0.728182      0.507068
  C       3.698889      0.169972      0.043592
  C       3.603872     -0.461643     -1.205971
  C       2.385617     -0.958496     -1.649694
  C       1.223301     -0.847466     -0.868242
  C       1.317776     -0.217772      0.378097
  C       2.541625      0.276124      0.824957
  N       0.043117     -1.435302     -1.358640
  C      -1.241115     -1.445515     -0.810906
  C      -1.855111     -2.712888     -0.734219
  C      -3.105276     -2.902393     -0.189991
  C      -3.868084     -1.813325      0.349787
  C      -3.281193     -0.507453      0.222943
  C      -1.999211     -0.323653     -0.391218
  C      -1.513629      1.053521     -0.706228
  O      -0.504298      1.245810     -1.381889
  C      -2.295889      2.211714     -0.202462
  C      -1.823163      3.510078     -0.440035
  C      -2.530689      4.607538      0.041337
  C      -3.717560      4.417150      0.762694
  C      -4.194437      3.130850      0.996189
  C      -3.484831      2.021051      0.513996
  C      -4.029505      0.658391      0.738156
  O      -5.112674      0.553146      1.344409
  N      -5.084364     -2.009088      0.900088
  S      -3.773838     -4.559161     -0.279780
  O      -4.799773     -4.759289      0.748569
  O      -4.064622     -4.943339     -1.657711
  O      -2.418803     -5.371708      0.195177
  C       4.871144      1.995427      1.238181
  H       7.226308      0.889509      2.079009
  H       7.654889      1.546177      0.492673
  H       8.168040     -0.098884      0.932088
  H       4.485252     -0.566790     -1.824899
  H       2.328288     -1.432683     -2.627229
  H       0.445922     -0.136943      1.018616
  H       2.590245      0.737220      1.807070
  H       0.227123     -2.239625     -1.945961
  H      -1.302037     -3.577201     -1.088949
  H      -0.901957      3.627560     -1.000836
  H      -2.162582      5.613299     -0.142806
  H      -4.269534      5.275240      1.136664
  H      -5.115200      2.958560      1.543003
  H      -5.405431     -2.952721      1.078788
  H      -5.524048     -1.188363      1.315833
  H      -2.558286     -6.314366     -0.027253
  H       4.798844      1.858889      2.326814
  H       5.752620      2.605571      1.026995
  H       3.992699      2.549225      0.900061
52
Coordinates from ORCA-job /home/tchapet/Post-Doc/ARTICLES-DOSSIERS-DES-ARTICLES-EN-REDACTION/NOUVELS-AXES-DE-RECHERCHE-A-REGARDER-URGEMMENT/ARTICLES-EN-REDACTIONS/ARTICLE_MVOTO/Paper2_JCIM/solvatochromic_tddft/opt_new_geometries/17574/17574_opt E -1900.700879057554
  C       7.360445      0.634201      0.997395
  C       6.113728      0.000328      0.386533
  O       6.182018     -1.073087     -0.197213
  N       4.926577      0.715896      0.505616
  C       3.692328      0.159458      0.038781
  C       3.596066     -0.463855     -1.215724
  C       2.376825     -0.954933     -1.663007
  C       1.215156     -0.847626     -0.880987
  C       1.310007     -0.227196      0.369068
  C       2.534321      0.263350      0.819427
  N       0.030794     -1.424901     -1.382998
  C      -1.249531     -1.438574     -0.825146
  C      -1.861790     -2.705862     -0.738123
  C      -3.114672     -2.896544     -0.198173
  C      -3.884683     -1.805874      0.328704
  C      -3.292277     -0.501980      0.205794
  C      -2.008880     -0.317829     -0.403014
  C      -1.520910      1.059591     -0.713429
  O      -0.502862      1.250996     -1.375407
  C      -2.297400      2.217760     -0.200812
  C      -1.817041      3.515741     -0.424581
  C      -2.520179      4.612048      0.065698
  C      -3.709130      4.420651      0.783349
  C      -4.193080      3.134662      1.003932
  C      -3.488569      2.026013      0.511721
  C      -4.038466      0.663623      0.724592
  O      -5.121127      0.557575      1.330301
  N      -5.103654     -1.991766      0.873990
  S      -3.735264     -4.574512     -0.276428
  O      -4.884360     -4.746515      0.616275
  O      -3.824899     -5.047580     -1.655047
  O      -2.435124     -5.324709      0.411719
  C       4.857803      1.965482      1.265003
  H       7.238735      0.869632      2.060868
  H       7.635084      1.562862      0.481383
  H       8.173510     -0.083874      0.878972
  H       4.476413     -0.565679     -1.836005
  H       2.317432     -1.418684     -2.645370
  H       0.438118     -0.149139      1.009701
  H       2.581422      0.718789      1.804106
  H       0.220511     -2.255357     -1.930964
  H      -1.306123     -3.572929     -1.082338
  H      -0.893934      3.633622     -0.982250
  H      -2.146562      5.617626     -0.108190
  H      -4.257420      5.277810      1.164879
  H      -5.114854      2.961735      1.548698
  H      -5.449772     -2.932223      1.016530
  H      -5.546973     -1.168395      1.273159
  H      -2.459666     -6.260214      0.125664
  H       4.749826      1.803726      2.347248
  H       5.754039      2.566296      1.096363
  H       3.998045      2.540364      0.913713
52
Coordinates from ORCA-job /home/tchapet/Post-Doc/ARTICLES-DOSSIERS-DES-ARTICLES-EN-REDACTION/NOUVELS-AXES-DE-RECHERCHE-A-REGARDER-URGEMMENT/ARTICLES-EN-REDACTIONS/ARTICLE_MVOTO/Paper2_JCIM/solvatochromic_tddft/opt_new_geometries/17574/17574_opt E -1900.701262246266
  C       7.352631      0.638719      0.985855
  C       6.110947      0.012709      0.357808
  O       6.187643     -1.048005     -0.246605
  N       4.916296      0.709846      0.502201
  C       3.684548      0.153402      0.029545
  C       3.586770     -0.445691     -1.237061
  C       2.368563     -0.935233     -1.689158
  C       1.210503     -0.850490     -0.900127
  C       1.306121     -0.254811      0.361153
  C       2.528858      0.236727      0.815837
  N       0.023870     -1.417423     -1.414209
  C      -1.252365     -1.436843     -0.843628
  C      -1.864573     -2.702302     -0.750698
  C      -3.119880     -2.891860     -0.211604
  C      -3.885319     -1.802768      0.318648
  C      -3.287446     -0.500394      0.201794
  C      -2.006553     -0.316796     -0.409846
  C      -1.513179      1.062050     -0.708808
  O      -0.502470      1.253086     -1.380134
  C      -2.291040      2.219961     -0.198268
  C      -1.809668      3.517896     -0.419861
  C      -2.512757      4.613518      0.071256
  C      -3.702086      4.421541      0.788307
  C      -4.186879      3.135731      1.007352
  C      -3.482895      2.027493      0.513681
  C      -4.029061      0.664196      0.731578
  O      -5.115009      0.555752      1.326432
  N      -5.096435     -1.984463      0.878894
  S      -3.710977     -4.581226     -0.274737
  O      -4.967335     -4.716663      0.465433
  O      -3.610911     -5.129509     -1.625597
  O      -2.503346     -5.280215      0.608493
  C       4.838514      1.937500      1.295248
  H       7.227524      0.852706      2.053154
  H       7.625174      1.577415      0.487804
  H       8.168035     -0.073931      0.855473
  H       4.464675     -0.529598     -1.862908
  H       2.306448     -1.377387     -2.681233
  H       0.435824     -0.193544      1.005858
  H       2.575351      0.675204      1.808174
  H       0.212559     -2.246900     -1.963276
  H      -1.310809     -3.570656     -1.094950
  H      -0.885791      3.635984     -0.976335
  H      -2.138453      5.619204     -0.101015
  H      -4.249903      5.278430      1.171364
  H      -5.108087      2.962406      1.552784
  H      -5.463253     -2.920452      0.988246
  H      -5.547526     -1.161742      1.263383
  H      -2.415568     -6.201623      0.291869
  H       4.707563      1.745071      2.369726
  H       5.741486      2.535596      1.162682
  H       3.989672      2.528382      0.944004
52
Coordinates from ORCA-job /home/tchapet/Post-Doc/ARTICLES-DOSSIERS-DES-ARTICLES-EN-REDACTION/NOUVELS-AXES-DE-RECHERCHE-A-REGARDER-URGEMMENT/ARTICLES-EN-REDACTIONS/ARTICLE_MVOTO/Paper2_JCIM/solvatochromic_tddft/opt_new_geometries/17574/17574_opt E -1900.701978356808
  C       7.354394      0.623144      0.959488
  C       6.111119      0.017118      0.317296
  O       6.193819     -1.007743     -0.344711
  N       4.908466      0.685784      0.514384
  C       3.678353      0.140481      0.026381
  C       3.574922     -0.398830     -1.266417
  C       2.357155     -0.878550     -1.730949
  C       1.206536     -0.840598     -0.928793
  C       1.307715     -0.306500      0.358795
  C       2.529517      0.177000      0.825744
  N       0.017489     -1.388989     -1.461581
  C      -1.254112     -1.421091     -0.875004
  C      -1.856401     -2.687034     -0.772487
  C      -3.111328     -2.882920     -0.228765
  C      -3.870480     -1.802413      0.315950
  C      -3.281828     -0.493901      0.192084
  C      -2.009644     -0.304397     -0.433137
  C      -1.531219      1.079626     -0.741027
  O      -0.519651      1.275502     -1.407229
  C      -2.306787      2.233227     -0.219925
  C      -1.827451      3.532773     -0.436708
  C      -2.529721      4.624517      0.062844
  C      -3.716160      4.427269      0.783535
  C      -4.198763      3.140181      0.998271
  C      -3.495183      2.035272      0.496792
  C      -4.032578      0.669055      0.719639
  O      -5.111825      0.553101      1.318696
  N      -5.062051     -1.992328      0.909512
  S      -3.656008     -4.587410     -0.257141
  O      -5.033593     -4.686762      0.228271
  O      -3.284791     -5.233883     -1.516327
  O      -2.634107     -5.198577      0.885333
  C       4.824958      1.870799      1.369284
  H       7.241767      0.780863      2.037600
  H       7.610385      1.587708      0.504540
  H       8.174489     -0.072963      0.782046
  H       4.448176     -0.445455     -1.902287
  H       2.288853     -1.273672     -2.742191
  H       0.442212     -0.283745      1.012624
  H       2.579011      0.570601      1.836519
  H       0.199108     -2.193374     -2.048071
  H      -1.301440     -3.552333     -1.123551
  H      -0.906506      3.654663     -0.997319
  H      -2.157366      5.631623     -0.105850
  H      -4.262988      5.281614      1.173900
  H      -5.117061      2.962766      1.547198
  H      -5.453792     -2.921825      0.964008
  H      -5.530571     -1.175626      1.279875
  H      -2.390022     -6.098473      0.591475
  H       4.679641      1.621349      2.429863
  H       5.732124      2.468556      1.280504
  H       3.983216      2.484800      1.040994
52
Coordinates from ORCA-job /home/tchapet/Post-Doc/ARTICLES-DOSSIERS-DES-ARTICLES-EN-REDACTION/NOUVELS-AXES-DE-RECHERCHE-A-REGARDER-URGEMMENT/ARTICLES-EN-REDACTIONS/ARTICLE_MVOTO/Paper2_JCIM/solvatochromic_tddft/opt_new_geometries/17574/17574_opt E -1900.702812290928
  C       7.353309      0.599463      0.946263
  C       6.108591      0.012752      0.291223
  O       6.192518     -0.986245     -0.409247
  N       4.901519      0.660007      0.524184
  C       3.673522      0.129799      0.016148
  C       3.569672     -0.355859     -1.297189
  C       2.353056     -0.823337     -1.777948
  C       1.205558     -0.823877     -0.970854
  C       1.307430     -0.343959      0.337684
  C       2.527693      0.128240      0.820467
  N       0.017864     -1.356527     -1.517429
  C      -1.247574     -1.403039     -0.915798
  C      -1.840870     -2.669552     -0.817992
  C      -3.087986     -2.876387     -0.255060
  C      -3.832470     -1.809149      0.323215
  C      -3.258955     -0.491546      0.193512
  C      -1.999129     -0.291586     -0.451860
  C      -1.534657      1.100530     -0.754575
  O      -0.528375      1.309061     -1.423546
  C      -2.318489      2.245224     -0.228349
  C      -1.849794      3.549043     -0.442931
  C      -2.559923      4.633727      0.059883
  C      -3.744637      4.425482      0.780724
  C      -4.216806      3.134483      0.993170
  C      -3.504604      2.036327      0.489387
  C      -4.027412      0.664855      0.715021
  O      -5.099551      0.534939      1.319866
  N      -5.001565     -2.014577      0.953541
  S      -3.594467     -4.588643     -0.239041
  O      -5.045833     -4.669784     -0.066384
  O      -2.947812     -5.321747     -1.330055
  O      -2.851828     -5.095230      1.141248
  C       4.813696      1.811194      1.424372
  H       7.245858      0.714666      2.030151
  H       7.601973      1.581219      0.525677
  H       8.175249     -0.085186      0.737825
  H       4.441930     -0.371679     -1.935964
  H       2.283481     -1.179133     -2.803504
  H       0.443055     -0.351845      0.993866
  H       2.577109      0.482086      1.845795
  H       0.187823     -2.121097     -2.156705
  H      -1.292953     -3.526391     -1.200650
  H      -0.930972      3.679685     -1.005007
  H      -2.195757      5.644246     -0.106645
  H      -4.297460      5.274822      1.173763
  H      -5.133778      2.948701      1.541697
  H      -5.429560     -2.928865      0.928122
  H      -5.481939     -1.203939      1.321430
  H      -2.484279     -5.979245      0.946226
  H       4.658514      1.518455      2.472224
  H       5.723483      2.407729      1.367966
  H       3.976531      2.441690      1.116062
52
Coordinates from ORCA-job /home/tchapet/Post-Doc/ARTICLES-DOSSIERS-DES-ARTICLES-EN-REDACTION/NOUVELS-AXES-DE-RECHERCHE-A-REGARDER-URGEMMENT/ARTICLES-EN-REDACTIONS/ARTICLE_MVOTO/Paper2_JCIM/solvatochromic_tddft/opt_new_geometries/17574/17574_opt E -1900.702644262435
  C       7.348801      0.577458      0.966352
  C       6.102748     -0.006555      0.312284
  O       6.179244     -1.011427     -0.381992
  N       4.899457      0.647728      0.538831
  C       3.674371      0.129608      0.011340
  C       3.578826     -0.325258     -1.311718
  C       2.366250     -0.786186     -1.809238
  C       1.213847     -0.807872     -1.007179
  C       1.309434     -0.357652      0.314019
  C       2.526595      0.104422      0.812478
  N       0.036263     -1.338265     -1.554074
  C      -1.228649     -1.392520     -0.954172
  C      -1.816229     -2.661448     -0.877537
  C      -3.045329     -2.876344     -0.278696
  C      -3.765767     -1.822594      0.343036
  C      -3.217562     -0.495312      0.203318
  C      -1.971924     -0.284421     -0.467742
  C      -1.522709      1.116003     -0.764583
  O      -0.520819      1.343374     -1.434762
  C      -2.320612      2.248793     -0.232597
  C      -1.869652      3.558435     -0.449667
  C      -2.592960      4.634909      0.052261
  C      -3.775609      4.413084      0.772822
  C      -4.230538      3.116452      0.987199
  C      -3.503860      2.026942      0.485945
  C      -4.011514      0.649742      0.711821
  O      -5.070879      0.501720      1.335931
  N      -4.914205     -2.060492      1.006886
  S      -3.596339     -4.564674     -0.201361
  O      -5.056332     -4.572289     -0.085157
  O      -2.938469     -5.351751     -1.246562
  O      -2.958879     -5.049417      1.231874
  C       4.812244      1.804918      1.433023
  H       7.237469      0.685912      2.050909
  H       7.597805      1.562231      0.552868
  H       8.171950     -0.105696      0.757206
  H       4.455778     -0.323091     -1.945370
  H       2.304995     -1.125537     -2.840915
  H       0.442104     -0.382354      0.966229
  H       2.573259      0.433831      1.846194
  H       0.184774     -2.021498     -2.282716
  H      -1.283774     -3.505307     -1.306616
  H      -0.953707      3.700879     -1.013252
  H      -2.241797      5.649815     -0.115353
  H      -4.339086      5.256267      1.163920
  H      -5.146752      2.920188      1.533831
  H      -5.360361     -2.964490      0.928215
  H      -5.414422     -1.260814      1.383115
  H      -2.699153     -5.982364      1.103936
  H       4.690088      1.515820      2.486195
  H       5.707561      2.421825      1.349503
  H       3.954025      2.415272      1.143693
52
Coordinates from ORCA-job /home/tchapet/Post-Doc/ARTICLES-DOSSIERS-DES-ARTICLES-EN-REDACTION/NOUVELS-AXES-DE-RECHERCHE-A-REGARDER-URGEMMENT/ARTICLES-EN-REDACTIONS/ARTICLE_MVOTO/Paper2_JCIM/solvatochromic_tddft/opt_new_geometries/17574/17574_opt E -1900.703816849031
  C       7.367548      0.584615      0.942884
  C       6.120375      0.000124      0.288032
  O       6.198043     -1.003568     -0.408255
  N       4.916979      0.654543      0.519568
  C       3.687948      0.132674      0.003086
  C       3.585052     -0.341850     -1.313397
  C       2.367866     -0.800644     -1.800529
  C       1.216562     -0.804725     -0.996209
  C       1.319222     -0.334862      0.317525
  C       2.540821      0.125834      0.806141
  N       0.032197     -1.333260     -1.539343
  C      -1.233060     -1.391032     -0.941876
  C      -1.822446     -2.662356     -0.873178
  C      -3.054928     -2.881588     -0.288104
  C      -3.796244     -1.825707      0.317927
  C      -3.237416     -0.500877      0.198938
  C      -1.981550     -0.287948     -0.452733
  C      -1.516061      1.109501     -0.727891
  O      -0.505525      1.334812     -1.387652
  C      -2.319457      2.243058     -0.204134
  C      -1.865051      3.552868     -0.413386
  C      -2.593190      4.629317      0.082748
  C      -3.782833      4.406948      0.791044
  C      -4.240460      3.109782      0.998269
  C      -3.509859      2.020723      0.501017
  C      -4.023165      0.644273      0.715980
  O      -5.095439      0.503373      1.325234
  N      -4.957629     -2.062943      0.958294
  S      -3.578949     -4.582485     -0.234397
  O      -5.039837     -4.634146     -0.308695
  O      -2.764577     -5.390835     -1.142632
  O      -3.129040     -4.997525      1.291832
  C       4.829946      1.809892      1.415307
  H       7.259415      0.697505      2.027436
  H       7.619008      1.567758      0.526198
  H       8.188895     -0.101647      0.733746
  H       4.459214     -0.354223     -1.950367
  H       2.301334     -1.151051     -2.828207
  H       0.454422     -0.345092      0.972783
  H       2.591682      0.468547      1.835177
  H       0.190890     -2.056598     -2.227997
  H      -1.283275     -3.509399     -1.287597
  H      -0.942329      3.695065     -0.965824
  H      -2.239596      5.644174     -0.079265
  H      -4.350064      5.249535      1.177649
  H      -5.161428      2.912569      1.536411
  H      -5.416320     -2.956503      0.837931
  H      -5.455723     -1.255372      1.321604
  H      -2.757374     -5.899560      1.227448
  H       4.687616      1.521601      2.466639
  H       5.734088      2.415940      1.346687
  H       3.983704      2.430766      1.112108
52
Coordinates from ORCA-job /home/tchapet/Post-Doc/ARTICLES-DOSSIERS-DES-ARTICLES-EN-REDACTION/NOUVELS-AXES-DE-RECHERCHE-A-REGARDER-URGEMMENT/ARTICLES-EN-REDACTIONS/ARTICLE_MVOTO/Paper2_JCIM/solvatochromic_tddft/opt_new_geometries/17574/17574_opt E -1900.703902596972
  C       7.384616      0.592977      0.940995
  C       6.135589     -0.004480      0.298224
  O       6.208747     -1.030389     -0.364886
  N       4.939490      0.676001      0.496529
  C       3.704866      0.143848      0.002499
  C       3.598729     -0.392346     -1.290818
  C       2.377202     -0.857334     -1.759366
  C       1.222556     -0.810040     -0.961150
  C       1.327743     -0.277716      0.328306
  C       2.553809      0.188902      0.799107
  N       0.032741     -1.349263     -1.490097
  C      -1.236956     -1.399006     -0.904323
  C      -1.832624     -2.673109     -0.839054
  C      -3.073607     -2.886756     -0.279170
  C      -3.839339     -1.821835      0.293700
  C      -3.263299     -0.507316      0.198715
  C      -1.991759     -0.297024     -0.424807
  C      -1.510198      1.094464     -0.686577
  O      -0.487822      1.314152     -1.331397
  C      -2.316229      2.231916     -0.172133
  C      -1.855567      3.540528     -0.375311
  C      -2.585952      4.619260      0.113602
  C      -3.782592      4.400086      0.810504
  C      -4.245928      3.103708      1.012621
  C      -3.514163      2.012664      0.520734
  C      -4.036009      0.638157      0.725313
  O      -5.122778      0.504245      1.315156
  N      -5.028871     -2.048285      0.886139
  S      -3.619117     -4.586338     -0.280624
  O      -5.081277     -4.637740     -0.266463
  O      -2.862850     -5.369701     -1.255236
  O      -3.081914     -5.047714      1.208097
  C       4.861564      1.864015      1.348065
  H       7.274613      0.747168      2.020293
  H       7.647300      1.558592      0.491194
  H       8.200469     -0.108310      0.759632
  H       4.473582     -0.447166     -1.924324
  H       2.309749     -1.252954     -2.770582
  H       0.461420     -0.246010      0.980501
  H       2.606297      0.577875      1.811477
  H       0.205950     -2.125990     -2.116250
  H      -1.283485     -3.528780     -1.221341
  H      -0.926012      3.679897     -0.917043
  H      -2.227801      5.633011     -0.044889
  H      -4.351695      5.243892      1.191391
  H      -5.171435      2.908618      1.543346
  H      -5.478942     -2.947473      0.772701
  H      -5.520413     -1.234452      1.243661
  H      -2.705794     -5.944567      1.103055
  H       4.714631      1.619334      2.409950
  H       5.771137      2.459513      1.257663
  H       4.021628      2.479272      1.016647
52
Coordinates from ORCA-job /home/tchapet/Post-Doc/ARTICLES-DOSSIERS-DES-ARTICLES-EN-REDACTION/NOUVELS-AXES-DE-RECHERCHE-A-REGARDER-URGEMMENT/ARTICLES-EN-REDACTIONS/ARTICLE_MVOTO/Paper2_JCIM/solvatochromic_tddft/opt_new_geometries/17574/17574_opt E -1900.704242672114
  C       7.389891      0.580011      0.940548
  C       6.140118     -0.013322      0.295952
  O       6.211074     -1.037068     -0.370549
  N       4.945927      0.669643      0.494448
  C       3.711150      0.143251     -0.005306
  C       3.606166     -0.383639     -1.302244
  C       2.384775     -0.843951     -1.775838
  C       1.228760     -0.799704     -0.979296
  C       1.332996     -0.276366      0.314231
  C       2.559110      0.184556      0.790049
  N       0.039735     -1.332874     -1.511104
  C      -1.228486     -1.389928     -0.922677
  C      -1.818384     -2.667495     -0.865094
  C      -3.054959     -2.886775     -0.298650
  C      -3.819423     -1.829633      0.285578
  C      -3.251914     -0.512716      0.196805
  C      -1.983395     -0.293310     -0.431387
  C      -1.510624      1.102396     -0.686932
  O      -0.485548      1.332490     -1.323506
  C      -2.323380      2.232526     -0.166377
  C      -1.870435      3.544644     -0.364142
  C      -2.607535      4.617175      0.128123
  C      -3.803440      4.388466      0.823356
  C      -4.258968      3.088656      1.020714
  C      -3.520423      2.003804      0.525412
  C      -4.032946      0.625359      0.726616
  O      -5.115672      0.480019      1.319958
  N      -5.002021     -2.073755      0.888063
  S      -3.601918     -4.583348     -0.268561
  O      -5.056516     -4.627144     -0.417958
  O      -2.743813     -5.410753     -1.113973
  O      -3.248598     -4.974468      1.292843
  C       4.870122      1.856322      1.348155
  H       7.279668      0.728543      2.020594
  H       7.652942      1.547793      0.495871
  H       8.205383     -0.120626      0.755882
  H       4.482142     -0.435822     -1.934549
  H       2.318934     -1.234030     -2.789371
  H       0.465598     -0.247090      0.965213
  H       2.611035      0.566755      1.805070
  H       0.208364     -2.092239     -2.158788
  H      -1.271824     -3.518807     -1.260089
  H      -0.941549      3.692058     -0.904885
  H      -2.255358      5.633627     -0.026607
  H      -4.377781      5.227566      1.206821
  H      -5.183429      2.886440      1.550590
  H      -5.466230     -2.957570      0.722443
  H      -5.507368     -1.262567      1.231920
  H      -2.836515     -5.860766      1.269750
  H       4.725435      1.609310      2.409643
  H       5.779551      2.452012      1.257196
  H       4.029577      2.472346      1.020017
52
Coordinates from ORCA-job /home/tchapet/Post-Doc/ARTICLES-DOSSIERS-DES-ARTICLES-EN-REDACTION/NOUVELS-AXES-DE-RECHERCHE-A-REGARDER-URGEMMENT/ARTICLES-EN-REDACTIONS/ARTICLE_MVOTO/Paper2_JCIM/solvatochromic_tddft/opt_new_geometries/17574/17574_opt E -1900.704284412793
  C       7.392339      0.570633      0.945307
  C       6.141714     -0.020153      0.300914
  O       6.208693     -1.049754     -0.356957
  N       4.950152      0.669776      0.491810
  C       3.714474      0.145247     -0.007095
  C       3.609531     -0.385384     -1.302420
  C       2.387614     -0.845160     -1.775400
  C       1.231158     -0.795064     -0.980066
  C       1.335192     -0.267450      0.311768
  C       2.562049      0.191685      0.787313
  N       0.042109     -1.328474     -1.511039
  C      -1.226531     -1.386706     -0.923997
  C      -1.814592     -2.665905     -0.870249
  C      -3.050542     -2.886847     -0.304458
  C      -3.815825     -1.832000      0.283088
  C      -3.251062     -0.515063      0.197166
  C      -1.982186     -0.292437     -0.431006
  C      -1.513309      1.104055     -0.685734
  O      -0.491427      1.336974     -1.326599
  C      -2.328435      2.232262     -0.164765
  C      -1.878459      3.545379     -0.362618
  C      -2.616737      4.616166      0.131433
  C      -3.811181      4.384872      0.828375
  C      -4.264088      3.084206      1.025582
  C      -3.524394      2.000967      0.528521
  C      -4.033982      0.621482      0.728951
  O      -5.113768      0.472297      1.325957
  N      -4.997130     -2.081384      0.889266
  S      -3.601680     -4.582162     -0.269810
  O      -5.053532     -4.622411     -0.445790
  O      -2.729758     -5.414779     -1.096333
  O      -3.280706     -4.965735      1.300282
  C       4.878842      1.862065      1.338212
  H       7.278853      0.725853      2.024111
  H       7.661086      1.534629      0.495947
  H       8.205232     -0.134713      0.767776
  H       4.486005     -0.442154     -1.933667
  H       2.322197     -1.239468     -2.787363
  H       0.467364     -0.234325      0.961847
  H       2.614300      0.577221      1.801098
  H       0.210393     -2.083847     -2.163224
  H      -1.267558     -3.516247     -1.266864
  H      -0.950582      3.695079     -0.904466
  H      -2.266594      5.633350     -0.023238
  H      -4.386437      5.222703      1.213310
  H      -5.187565      2.880107      1.556557
  H      -5.467904     -2.958560      0.708155
  H      -5.503840     -1.270851      1.234135
  H      -2.853841     -5.844921      1.289070
  H       4.741280      1.621660      2.402123
  H       5.787203      2.457910      1.237455
  H       4.035865      2.475378      1.011604
52
Coordinates from ORCA-job /home/tchapet/Post-Doc/ARTICLES-DOSSIERS-DES-ARTICLES-EN-REDACTION/NOUVELS-AXES-DE-RECHERCHE-A-REGARDER-URGEMMENT/ARTICLES-EN-REDACTIONS/ARTICLE_MVOTO/Paper2_JCIM/solvatochromic_tddft/opt_new_geometries/17574/17574_opt E -1900.704322324343
  C       7.393725      0.565337      0.950651
  C       6.142352     -0.026330      0.309219
  O       6.205250     -1.064848     -0.334820
  N       4.954041      0.672874      0.487239
  C       3.717400      0.148078     -0.008204
  C       3.612942     -0.393483     -1.299014
  C       2.390477     -0.854451     -1.769536
  C       1.233267     -0.793615     -0.976213
  C       1.336576     -0.254792      0.310935
  C       2.564252      0.204495      0.784337
  N       0.044133     -1.329081     -1.505294
  C      -1.225697     -1.386295     -0.921377
  C      -1.813605     -2.666677     -0.871095
  C      -3.050703     -2.887271     -0.309419
  C      -3.817034     -1.833625      0.279247
  C      -3.252899     -0.517980      0.197200
  C      -1.982188     -0.293482     -0.428750
  C      -1.516203      1.103198     -0.683885
  O      -0.496104      1.337490     -1.327324
  C      -2.331472      2.230527     -0.161215
  C      -1.882259      3.544011     -0.358071
  C      -2.620086      4.613879      0.138472
  C      -3.813463      4.381370      0.836854
  C      -4.265847      3.080416      1.032933
  C      -3.526687      1.997995      0.533404
  C      -4.035575      0.618105      0.732214
  O      -5.113589      0.466408      1.330979
  N      -4.998609     -2.086312      0.885233
  S      -3.608532     -4.581520     -0.277174
  O      -5.058681     -4.615806     -0.466194
  O      -2.731010     -5.415144     -1.097229
  O      -3.304483     -4.968396      1.295221
  C       4.887974      1.874920      1.320346
  H       7.276706      0.733914      2.027099
  H       7.668679      1.522685      0.491049
  H       8.203786     -0.145997      0.784802
  H       4.490114     -0.458586     -1.928546
  H       2.325684     -1.257961     -2.777927
  H       0.468001     -0.213953      0.959435
  H       2.616592      0.598811      1.794786
  H       0.214125     -2.086591     -2.154510
  H      -1.266066     -3.517177     -1.266647
  H      -0.955211      3.694789     -0.901048
  H      -2.270338      5.631327     -0.015434
  H      -4.388364      5.218504      1.223870
  H      -5.188620      2.875386      1.564837
  H      -5.474515     -2.958138      0.691899
  H      -5.506939     -1.275924      1.228539
  H      -2.847235     -5.832004      1.285671
  H       4.760087      1.646822      2.388158
  H       5.794460      2.471081      1.204518
  H       4.041388      2.483020      0.993760
52
Coordinates from ORCA-job /home/tchapet/Post-Doc/ARTICLES-DOSSIERS-DES-ARTICLES-EN-REDACTION/NOUVELS-AXES-DE-RECHERCHE-A-REGARDER-URGEMMENT/ARTICLES-EN-REDACTIONS/ARTICLE_MVOTO/Paper2_JCIM/solvatochromic_tddft/opt_new_geometries/17574/17574_opt E -1900.704364455483
  C       7.394251      0.563808      0.956008
  C       6.142106     -0.031490      0.320164
  O       6.200419     -1.081524     -0.305331
  N       4.957565      0.678516      0.481112
  C       3.719990      0.151798     -0.009064
  C       3.616301     -0.404566     -1.293575
  C       2.393374     -0.868124     -1.760397
  C       1.235349     -0.794391     -0.969308
  C       1.337744     -0.240851      0.311491
  C       2.566263      0.220034      0.781446
  N       0.046510     -1.334119     -1.495390
  C      -1.225339     -1.388698     -0.916739
  C      -1.815380     -2.669479     -0.872301
  C      -3.054216     -2.888570     -0.315704
  C      -3.820408     -1.835752      0.274997
  C      -3.255250     -0.522130      0.198140
  C      -1.981901     -0.296754     -0.424555
  C      -1.517954      1.099634     -0.680258
  O      -0.499922      1.334412     -1.327257
  C      -2.332086      2.226666     -0.155268
  C      -1.882244      3.540153     -0.350357
  C      -2.618717      4.609640      0.148977
  C      -3.811527      4.376796      0.848224
  C      -4.264814      3.075905      1.042264
  C      -3.527040      1.993807      0.540083
  C      -4.036933      0.614050      0.736209
  O      -5.114628      0.460642      1.334588
  N      -5.003031     -2.090973      0.879785
  S      -3.620725     -4.581727     -0.290305
  O      -5.067791     -4.606849     -0.498916
  O      -2.733718     -5.416227     -1.099830
  O      -3.344266     -4.977476      1.284135
  C       4.897538      1.893358      1.296221
  H       7.273373      0.751344      2.028925
  H       7.675834      1.511933      0.481586
  H       8.201282     -0.154373      0.805856
  H       4.494213     -0.479460     -1.921091
  H       2.329289     -1.283629     -2.763949
  H       0.468506     -0.190929      0.958289
  H       2.618845      0.625721      1.787430
  H       0.219588     -2.096366     -2.138225
  H      -1.268543     -3.520447     -1.267773
  H      -0.955765      3.691188     -0.894237
  H      -2.268253      5.627064     -0.003506
  H      -4.385370      5.213605      1.237532
  H      -5.187355      2.870456      1.574474
  H      -5.486172     -2.955418      0.671357
  H      -5.511500     -1.280213      1.222735
  H      -2.826656     -5.806111      1.276613
  H       4.784724      1.681936      2.369159
  H       5.799974      2.491413      1.158493
  H       4.044467      2.492768      0.971022
52
Coordinates from ORCA-job /home/tchapet/Post-Doc/ARTICLES-DOSSIERS-DES-ARTICLES-EN-REDACTION/NOUVELS-AXES-DE-RECHERCHE-A-REGARDER-URGEMMENT/ARTICLES-EN-REDACTIONS/ARTICLE_MVOTO/Paper2_JCIM/solvatochromic_tddft/opt_new_geometries/17574/17574_opt E -1900.704441339878
  C       7.391098      0.566828      0.963899
  C       6.138560     -0.035603      0.336617
  O       6.190867     -1.102123     -0.260824
  N       4.959021      0.688314      0.472430
  C       3.720680      0.157306     -0.010024
  C       3.618405     -0.417920     -1.286198
  C       2.395501     -0.886851     -1.747682
  C       1.236726     -0.798773     -0.958836
  C       1.337598     -0.226548      0.313607
  C       2.566765      0.238338      0.778506
  N       0.049212     -1.346619     -1.480406
  C      -1.226194     -1.396145     -0.911352
  C      -1.821232     -2.676340     -0.875808
  C      -3.062935     -2.891975     -0.326201
  C      -3.827496     -1.839368      0.267106
  C      -3.259164     -0.528984      0.197641
  C      -1.981904     -0.304150     -0.420418
  C      -1.519199      1.091193     -0.677600
  O      -0.504841      1.325237     -1.331335
  C      -2.328773      2.218776     -0.147142
  C      -1.875502      3.531578     -0.338372
  C      -2.607676      4.601405      0.166608
  C      -3.799855      4.369633      0.867264
  C      -4.256942      3.069470      1.056981
  C      -3.523465      1.987011      0.549444
  C      -4.037674      0.608337      0.740453
  O      -5.114821      0.454336      1.339035
  N      -5.011553     -2.097089      0.870641
  S      -3.641216     -4.584022     -0.310475
  O      -5.082493     -4.594774     -0.548988
  O      -2.737561     -5.419703     -1.101060
  O      -3.412587     -4.997515      1.265194
  C       4.906873      1.920908      1.261516
  H       7.264513      0.782634      2.030879
  H       7.681003      1.501103      0.467553
  H       8.194596     -0.159770      0.837340
  H       4.497112     -0.503254     -1.911485
  H       2.332426     -1.317494     -2.744869
  H       0.467871     -0.166834      0.958674
  H       2.619874      0.658122      1.778764
  H       0.227586     -2.115708     -2.113595
  H      -1.276562     -3.528257     -1.272184
  H      -0.949845      3.681768     -0.883886
  H      -2.254190      5.618261      0.017305
  H      -4.370373      5.206626      1.261053
  H      -5.179375      2.864582      1.589668
  H      -5.504747     -2.950658      0.641785
  H      -5.520773     -1.285197      1.210385
  H      -2.769734     -5.732780      1.270366
  H       4.822736      1.733561      2.341530
  H       5.799378      2.525037      1.086875
  H       4.040283      2.504092      0.943596
52
Coordinates from ORCA-job /home/tchapet/Post-Doc/ARTICLES-DOSSIERS-DES-ARTICLES-EN-REDACTION/NOUVELS-AXES-DE-RECHERCHE-A-REGARDER-URGEMMENT/ARTICLES-EN-REDACTIONS/ARTICLE_MVOTO/Paper2_JCIM/solvatochromic_tddft/opt_new_geometries/17574/17574_opt E -1900.704500869459
  C       7.386963      0.574147      0.966843
  C       6.134544     -0.034470      0.345825
  O       6.184239     -1.109379     -0.236571
  N       4.957296      0.695757      0.468290
  C       3.718978      0.160751     -0.009511
  C       3.617543     -0.422274     -1.282088
  C       2.395355     -0.896126     -1.740276
  C       1.236779     -0.805048     -0.951052
  C       1.336965     -0.225300      0.317968
  C       2.565843      0.243950      0.779570
  N       0.051034     -1.360238     -1.468971
  C      -1.227257     -1.404975     -0.907926
  C      -1.827922     -2.683295     -0.879094
  C      -3.071683     -2.895959     -0.333208
  C      -3.833189     -1.842337      0.262373
  C      -3.260992     -0.534063      0.197051
  C      -1.981376     -0.311479     -0.418026
  C      -1.517409      1.082654     -0.676347
  O      -0.505224      1.314952     -1.334536
  C      -2.322617      2.211436     -0.142138
  C      -1.865201      3.523262     -0.330092
  C      -2.593741      4.594159      0.178005
  C      -3.786625      4.364494      0.878123
  C      -4.248050      3.065323      1.064216
  C      -3.518054      1.981802      0.553904
  C      -4.037035      0.604500      0.741057
  O      -5.116398      0.452147      1.336231
  N      -5.018632     -2.099007      0.864473
  S      -3.658040     -4.587084     -0.326137
  O      -5.095808     -4.586726     -0.578450
  O      -2.744388     -5.421346     -1.106794
  O      -3.464658     -5.021195      1.246969
  C       4.908871      1.937974      1.242690
  H       7.258308      0.804966      2.030460
  H       7.678693      1.501456      0.458597
  H       8.189908     -0.155029      0.851963
  H       4.496333     -0.509302     -1.907222
  H       2.332558     -1.332825     -2.734803
  H       0.467555     -0.163776      0.963233
  H       2.619672      0.668973      1.777644
  H       0.232920     -2.132848     -2.096894
  H      -1.285988     -3.535717     -1.278167
  H      -0.939380      3.671667     -0.875814
  H      -2.236865      5.610220      0.031429
  H      -4.354352      5.202281      1.274223
  H      -5.171279      2.861750      1.596035
  H      -5.517244     -2.947515      0.628106
  H      -5.525630     -1.286397      1.206156
  H      -2.715263     -5.646642      1.274061
  H       4.849148      1.764378      2.326583
  H       5.790929      2.549760      1.040970
  H       4.029867      2.507594      0.935049
52
Coordinates from ORCA-job /home/tchapet/Post-Doc/ARTICLES-DOSSIERS-DES-ARTICLES-EN-REDACTION/NOUVELS-AXES-DE-RECHERCHE-A-REGARDER-URGEMMENT/ARTICLES-EN-REDACTIONS/ARTICLE_MVOTO/Paper2_JCIM/solvatochromic_tddft/opt_new_geometries/17574/17574_opt E -1900.704583729756
  C       7.381745      0.585157      0.961380
  C       6.130731     -0.025732      0.339208
  O       6.184834     -1.094470     -0.254003
  N       4.949805      0.696190      0.473426
  C       3.713012      0.159186     -0.007151
  C       3.611397     -0.411150     -1.285389
  C       2.390731     -0.886833     -1.745495
  C       1.233537     -0.811306     -0.952353
  C       1.334270     -0.244375      0.322630
  C       2.561423      0.227704      0.785682
  N       0.049231     -1.368081     -1.470682
  C      -1.229236     -1.411207     -0.910050
  C      -1.832776     -2.686940     -0.878531
  C      -3.076558     -2.898383     -0.329708
  C      -3.835425     -1.841637      0.263868
  C      -3.259906     -0.532724      0.195281
  C      -1.981458     -0.314448     -0.421176
  C      -1.512186      1.078547     -0.679746
  O      -0.498587      1.307648     -1.336630
  C      -2.314197      2.209549     -0.145588
  C      -1.852774      3.520112     -0.332966
  C      -2.579118      4.593161      0.173900
  C      -3.773730      4.366887      0.872142
  C      -4.238932      3.068894      1.057711
  C      -3.510985      1.983319      0.548704
  C      -4.034112      0.607475      0.735841
  O      -5.115971      0.460198      1.328762
  N      -5.021713     -2.091877      0.864226
  S      -3.660014     -4.589532     -0.322441
  O      -5.100863     -4.591458     -0.555321
  O      -2.752392     -5.419520     -1.113266
  O      -3.459416     -5.032362      1.247090
  C       4.895901      1.931293      1.258565
  H       7.256411      0.804734      2.027751
  H       7.665292      1.519380      0.461135
  H       8.189008     -0.137551      0.835739
  H       4.489162     -0.485773     -1.913583
  H       2.327270     -1.312857     -2.744565
  H       0.466063     -0.193713      0.970689
  H       2.615503      0.642414      1.788060
  H       0.229956     -2.137683     -2.102633
  H      -1.292497     -3.539589     -1.279432
  H      -0.925784      3.665851     -0.877416
  H      -2.219319      5.608250      0.027861
  H      -4.339771      5.206362      1.267016
  H      -5.163476      2.867998      1.588164
  H      -5.513763     -2.948925      0.646012
  H      -5.526281     -1.278625      1.207035
  H      -2.679898     -5.620196      1.275040
  H       4.838508      1.747968      2.340926
  H       5.774162      2.550091      1.061216
  H       4.013186      2.498579      0.957042
52
Coordinates from ORCA-job /home/tchapet/Post-Doc/ARTICLES-DOSSIERS-DES-ARTICLES-EN-REDACTION/NOUVELS-AXES-DE-RECHERCHE-A-REGARDER-URGEMMENT/ARTICLES-EN-REDACTIONS/ARTICLE_MVOTO/Paper2_JCIM/solvatochromic_tddft/opt_new_geometries/17574/17574_opt E -1900.704637364758
  C       7.378308      0.587074      0.955545
  C       6.128513     -0.021829      0.327928
  O       6.187652     -1.079396     -0.284356
  N       4.943965      0.690280      0.479221
  C       3.708475      0.155004     -0.007872
  C       3.606276     -0.396113     -1.294480
  C       2.386746     -0.869579     -1.759597
  C       1.230702     -0.812405     -0.963363
  C       1.332277     -0.264516      0.320196
  C       2.557739      0.206914      0.787749
  N       0.046876     -1.366002     -1.484476
  C      -1.229833     -1.411610     -0.919108
  C      -1.831673     -2.686699     -0.881871
  C      -3.074356     -2.900113     -0.329113
  C      -3.833506     -1.841986      0.261531
  C      -3.257661     -0.531136      0.190122
  C      -1.981728     -0.313872     -0.428401
  C      -1.508370      1.079545     -0.683498
  O      -0.491538      1.308654     -1.334674
  C      -2.310453      2.210396     -0.148586
  C      -1.847725      3.520954     -0.333353
  C      -2.574852      4.593907      0.172606
  C      -3.771412      4.367507      0.867459
  C      -4.237562      3.069447      1.050779
  C      -3.508688      1.984021      0.542617
  C      -4.032651      0.607974      0.728298
  O      -5.116892      0.462737      1.318175
  N      -5.020199     -2.089279      0.859149
  S      -3.648493     -4.592303     -0.307677
  O      -5.087657     -4.606577     -0.550306
  O      -2.726735     -5.425229     -1.076736
  O      -3.471578     -5.015652      1.271040
  C       4.883606      1.913300      1.282095
  H       7.257176      0.787445      2.026143
  H       7.653572      1.531602      0.470239
  H       8.189623     -0.128074      0.813379
  H       4.483205     -0.456741     -1.925320
  H       2.322402     -1.279857     -2.765186
  H       0.464684     -0.226038      0.970280
  H       2.611682      0.606937      1.796088
  H       0.224047     -2.129171     -2.125131
  H      -1.290600     -3.538701     -1.283014
  H      -0.919208      3.666790     -0.875174
  H      -2.214341      5.609021      0.028539
  H      -4.338127      5.206980      1.261337
  H      -5.163277      2.868664      1.579115
  H      -5.505440     -2.952299      0.650038
  H      -5.525454     -1.276242      1.200074
  H      -2.661130     -5.557471      1.330650
  H       4.817625      1.713659      2.361089
  H       5.763068      2.535291      1.101634
  H       4.002921      2.484787      0.982153
52
Coordinates from ORCA-job /home/tchapet/Post-Doc/ARTICLES-DOSSIERS-DES-ARTICLES-EN-REDACTION/NOUVELS-AXES-DE-RECHERCHE-A-REGARDER-URGEMMENT/ARTICLES-EN-REDACTIONS/ARTICLE_MVOTO/Paper2_JCIM/solvatochromic_tddft/opt_new_geometries/17574/17574_opt E -1900.704647978411
  C       7.377821      0.582153      0.955309
  C       6.128157     -0.023145      0.324003
  O       6.188294     -1.076143     -0.296046
  N       4.942493      0.685384      0.482354
  C       3.707327      0.152089     -0.007686
  C       3.604750     -0.391351     -1.297483
  C       2.385233     -0.862639     -1.765003
  C       1.229574     -0.810835     -0.968192
  C       1.331541     -0.270557      0.318689
  C       2.556721      0.198977      0.788622
  N       0.045143     -1.360939     -1.491287
  C      -1.230215     -1.408437     -0.921856
  C      -1.829306     -2.684097     -0.880542
  C      -3.071529     -2.899385     -0.326675
  C      -3.832200     -1.840923      0.261532
  C      -3.257738     -0.528763      0.187901
  C      -1.982874     -0.310950     -0.431551
  C      -1.509798      1.083066     -0.686372
  O      -0.493123      1.312698     -1.337281
  C      -2.313085      2.213564     -0.152507
  C      -1.851319      3.524399     -0.337896
  C      -2.579193      4.596979      0.167628
  C      -3.775548      4.369922      0.862667
  C      -4.240753      3.071638      1.046583
  C      -3.511135      1.986536      0.538813
  C      -4.033893      0.610013      0.724962
  O      -5.117607      0.464508      1.315643
  N      -5.019144     -2.087123      0.858973
  S      -3.641491     -4.592011     -0.298562
  O      -5.083596     -4.612072     -0.525102
  O      -2.725975     -5.422097     -1.077793
  O      -3.447769     -5.012097      1.279761
  C       4.880301      1.902870      1.293320
  H       7.257149      0.774586      2.027415
  H       7.652280      1.530232      0.476548
  H       8.189498     -0.131402      0.807579
  H       4.481502     -0.447957     -1.928909
  H       2.320457     -1.266900     -2.773014
  H       0.463968     -0.235931      0.969068
  H       2.610595      0.593522      1.799115
  H       0.219546     -2.119861     -2.137565
  H      -1.286259     -3.535650     -1.280063
  H      -0.922852      3.670867     -0.879636
  H      -2.219501      5.612330      0.023151
  H      -4.342820      5.209178      1.256232
  H      -5.166341      2.870650      1.575079
  H      -5.499828     -2.955171      0.660530
  H      -5.523888     -1.274890      1.202966
  H      -2.636408     -5.552872      1.334904
  H       4.806404      1.695525      2.370385
  H       5.762963      2.523059      1.123568
  H       4.003472      2.479456      0.991699
52
Coordinates from ORCA-job /home/tchapet/Post-Doc/ARTICLES-DOSSIERS-DES-ARTICLES-EN-REDACTION/NOUVELS-AXES-DE-RECHERCHE-A-REGARDER-URGEMMENT/ARTICLES-EN-REDACTIONS/ARTICLE_MVOTO/Paper2_JCIM/solvatochromic_tddft/opt_new_geometries/17574/17574_opt E -1900.704656026741
  C       7.378944      0.572781      0.956847
  C       6.128870     -0.028656      0.322826
  O       6.188111     -1.080253     -0.299719
  N       4.943757      0.680488      0.482441
  C       3.708314      0.149832     -0.009484
  C       3.605745     -0.391128     -1.300280
  C       2.385810     -0.859831     -1.769529
  C       1.229769     -0.807435     -0.973632
  C       1.331641     -0.269487      0.314304
  C       2.557104      0.197317      0.786062
  N       0.044300     -1.353489     -1.498649
  C      -1.229769     -1.403895     -0.925385
  C      -1.824913     -2.681326     -0.881595
  C      -3.066679     -2.899437     -0.328045
  C      -3.830587     -1.841824      0.257645
  C      -3.258610     -0.528676      0.184734
  C      -1.983972     -0.308263     -0.434272
  C      -1.512692      1.086933     -0.686923
  O      -0.495956      1.318734     -1.336756
  C      -2.318213      2.215795     -0.152822
  C      -1.858386      3.527466     -0.337027
  C      -2.587851      4.598454      0.169451
  C      -3.783846      4.368925      0.864338
  C      -4.247172      3.069850      1.047083
  C      -3.516035      1.986307      0.538265
  C      -4.036608      0.608705      0.722812
  O      -5.119590      0.460705      1.313867
  N      -5.018545     -2.089788      0.852513
  S      -3.633789     -4.592628     -0.292034
  O      -5.075121     -4.617864     -0.522657
  O      -2.712618     -5.423096     -1.064034
  O      -3.449509     -5.004106      1.289993
  C       4.882000      1.896062      1.296262
  H       7.257185      0.763257      2.029180
  H       7.656050      1.521139      0.480204
  H       8.189311     -0.142166      0.808860
  H       4.482864     -0.448381     -1.931113
  H       2.321098     -1.262398     -2.778247
  H       0.463514     -0.234585      0.963896
  H       2.610774      0.590440      1.797114
  H       0.216701     -2.109739     -2.148532
  H      -1.279026     -3.532186     -1.278720
  H      -0.930081      3.676016     -0.878480
  H      -2.229700      5.614482      0.025883
  H      -4.352320      5.206977      1.258759
  H      -5.172522      2.867256      1.575413
  H      -5.497353     -2.958940      0.654424
  H      -5.524340     -1.278563      1.197603
  H      -2.615064     -5.505769      1.364086
  H       4.800800      1.685988      2.372302
  H       5.768556      2.512382      1.133643
  H       4.009652      2.477619      0.991103
52
Coordinates from ORCA-job /home/tchapet/Post-Doc/ARTICLES-DOSSIERS-DES-ARTICLES-EN-REDACTION/NOUVELS-AXES-DE-RECHERCHE-A-REGARDER-URGEMMENT/ARTICLES-EN-REDACTIONS/ARTICLE_MVOTO/Paper2_JCIM/solvatochromic_tddft/opt_new_geometries/17574/17574_opt E -1900.704655436525
  C       7.381533      0.565515      0.958046
  C       6.130765     -0.033426      0.322970
  O       6.189241     -1.084434     -0.300718
  N       4.946339      0.677027      0.482121
  C       3.710297      0.148452     -0.010464
  C       3.607828     -0.394866     -1.300311
  C       2.387155     -0.861179     -1.770132
  C       1.230239     -0.803875     -0.975879
  C       1.331930     -0.263569      0.311036
  C       2.558104      0.200765      0.783426
  N       0.043688     -1.346653     -1.502239
  C      -1.229518     -1.399292     -0.926403
  C      -1.821980     -2.678158     -0.881455
  C      -3.062958     -2.898080     -0.327422
  C      -3.828932     -1.841517      0.257707
  C      -3.259223     -0.527761      0.184776
  C      -1.984834     -0.305237     -0.434447
  C      -1.515228      1.090802     -0.685676
  O      -0.497567      1.324159     -1.333469
  C      -2.323091      2.218417     -0.152435
  C      -1.865489      3.530804     -0.336914
  C      -2.596941      4.600676      0.169073
  C      -3.792605      4.369251      0.863899
  C      -4.253683      3.069439      1.047017
  C      -3.520628      1.987034      0.538597
  C      -4.038718      0.608585      0.723459
  O      -5.121534      0.458492      1.314144
  N      -5.016716     -2.091347      0.851703
  S      -3.628440     -4.591917     -0.289336
  O      -5.069618     -4.619787     -0.520741
  O      -2.706913     -5.422698     -1.060644
  O      -3.442570     -4.998238      1.293730
  C       4.885311      1.892452      1.296228
  H       7.259434      0.755930      2.030339
  H       7.661016      1.513314      0.481668
  H       8.190503     -0.151091      0.810409
  H       4.485482     -0.456183     -1.929955
  H       2.322829     -1.265842     -2.778044
  H       0.463139     -0.225267      0.959483
  H       2.611371      0.595946      1.793659
  H       0.215428     -2.103100     -2.152164
  H      -1.274564     -3.528577     -1.277356
  H      -0.937326      3.680825     -0.878199
  H      -2.240568      5.617280      0.025176
  H      -4.362584      5.206401      1.258063
  H      -5.178722      2.865417      1.575346
  H      -5.494737     -2.960835      0.653181
  H      -5.523041     -1.280860      1.197603
  H      -2.613052     -5.508044      1.368255
  H       4.794859      1.682129      2.371492
  H       5.776703      2.503398      1.140741
  H       4.018585      2.479325      0.985032
52
Coordinates from ORCA-job /home/tchapet/Post-Doc/ARTICLES-DOSSIERS-DES-ARTICLES-EN-REDACTION/NOUVELS-AXES-DE-RECHERCHE-A-REGARDER-URGEMMENT/ARTICLES-EN-REDACTIONS/ARTICLE_MVOTO/Paper2_JCIM/solvatochromic_tddft/opt_new_geometries/17574/17574_opt E -1900.704660648149
  C       7.382459      0.563027      0.958587
  C       6.131367     -0.035363      0.323636
  O       6.189308     -1.086871     -0.299293
  N       4.947329      0.675916      0.481940
  C       3.710977      0.147934     -0.010515
  C       3.608536     -0.397154     -1.299641
  C       2.387527     -0.862640     -1.769391
  C       1.230220     -0.802736     -0.975770
  C       1.331871     -0.260711      0.310360
  C       2.558462      0.202727      0.782689
  N       0.043345     -1.344441     -1.502674
  C      -1.229707     -1.397919     -0.926402
  C      -1.821595     -2.677149     -0.881707
  C      -3.062226     -2.897563     -0.327245
  C      -3.828652     -1.841427      0.258212
  C      -3.259649     -0.527490      0.185316
  C      -1.985266     -0.304357     -0.434086
  C      -1.516259      1.091908     -0.685020
  O      -0.498313      1.325650     -1.332282
  C      -2.324789      2.219166     -0.152172
  C      -1.867935      3.531751     -0.336958
  C      -2.600016      4.601346      0.168770
  C      -3.795518      4.369414      0.863683
  C      -4.255837      3.069366      1.047126
  C      -3.522184      1.987275      0.538930
  C      -4.039538      0.608661      0.724150
  O      -5.121990      0.457926      1.315293
  N      -5.016110     -2.092130      0.852493
  S      -3.627034     -4.591968     -0.289824
  O      -5.068158     -4.620087     -0.520715
  O      -2.705575     -5.421865     -1.062224
  O      -3.440691     -4.999691      1.292350
  C       4.886873      1.891931      1.295249
  H       7.260234      0.754564      2.030660
  H       7.663029      1.510063      0.481321
  H       8.190765     -0.154506      0.811830
  H       4.486368     -0.460490     -1.928816
  H       2.323408     -1.268769     -2.776723
  H       0.462891     -0.220580      0.958397
  H       2.611621      0.599303      1.792367
  H       0.215274     -2.101117     -2.152289
  H      -1.274105     -3.527310     -1.278069
  H      -0.939852      3.682150     -0.878267
  H      -2.244215      5.618109      0.024604
  H      -4.365971      5.206309      1.257697
  H      -5.180742      2.864903      1.575521
  H      -5.493845     -2.961802      0.654226
  H      -5.523076     -1.281912      1.198059
  H      -2.608421     -5.505002      1.366949
  H       4.793613      1.682390      2.370424
  H       5.779837      2.500920      1.141352
  H       4.021954      2.480341      0.981870
52
Coordinates from ORCA-job /home/tchapet/Post-Doc/ARTICLES-DOSSIERS-DES-ARTICLES-EN-REDACTION/NOUVELS-AXES-DE-RECHERCHE-A-REGARDER-URGEMMENT/ARTICLES-EN-REDACTIONS/ARTICLE_MVOTO/Paper2_JCIM/solvatochromic_tddft/opt_new_geometries/17574/17574_opt E -1900.704656310488
  C       7.383982      0.559464      0.958680
  C       6.132343     -0.037915      0.323770
  O       6.189775     -1.089137     -0.299740
  N       4.948646      0.673804      0.482446
  C       3.711888      0.146914     -0.010246
  C       3.609312     -0.399216     -1.298975
  C       2.387875     -0.863339     -1.768867
  C       1.230133     -0.801056     -0.975886
  C       1.331927     -0.258004      0.309737
  C       2.559041      0.204038      0.782236
  N       0.042864     -1.341219     -1.503548
  C      -1.229915     -1.395851     -0.926601
  C      -1.821207     -2.675385     -0.882343
  C      -3.061134     -2.896590     -0.326616
  C      -3.827625     -1.841091      0.260004
  C      -3.259643     -0.526735      0.186639
  C      -1.985668     -0.302827     -0.433485
  C      -1.517396      1.093764     -0.684110
  O      -0.498918      1.328115     -1.330369
  C      -2.327223      2.220519     -0.152273
  C      -1.871726      3.533455     -0.337905
  C      -2.605098      4.602666      0.166826
  C      -3.800480      4.369999      0.861669
  C      -4.259394      3.069568      1.046052
  C      -3.524473      1.987888      0.538791
  C      -4.040382      0.608950      0.725147
  O      -5.122642      0.457442      1.316511
  N      -5.014253     -2.092813      0.855410
  S      -3.624670     -4.591727     -0.290056
  O      -5.065931     -4.620473     -0.519514
  O      -2.703392     -5.420154     -1.064217
  O      -3.436811     -5.001410      1.290950
  C       4.888660      1.889683      1.295997
  H       7.262245      0.750865      2.030823
  H       7.665269      1.506314      0.481444
  H       8.191639     -0.158722      0.811484
  H       4.487306     -0.464466     -1.927700
  H       2.323904     -1.270379     -2.775842
  H       0.462776     -0.216021      0.957393
  H       2.612082      0.601475      1.791567
  H       0.214824     -2.097584     -2.153576
  H      -1.273878     -3.525031     -1.280024
  H      -0.943660      3.684382     -0.879093
  H      -2.250360      5.619695      0.021928
  H      -4.371933      5.206564      1.254926
  H      -5.184136      2.864426      1.574466
  H      -5.491636     -2.962842      0.657787
  H      -5.521597     -1.283097      1.201560
  H      -2.602555     -5.503604      1.364611
  H       4.791109      1.679969      2.370765
  H       5.783802      2.496188      1.145387
  H       4.026332      2.480536      0.979957
52
Coordinates from ORCA-job /home/tchapet/Post-Doc/ARTICLES-DOSSIERS-DES-ARTICLES-EN-REDACTION/NOUVELS-AXES-DE-RECHERCHE-A-REGARDER-URGEMMENT/ARTICLES-EN-REDACTIONS/ARTICLE_MVOTO/Paper2_JCIM/solvatochromic_tddft/opt_new_geometries/17574/17574_opt E -1900.704661217013
  C       7.384323      0.558237      0.958603
  C       6.132555     -0.038585      0.323384
  O       6.189961     -1.089327     -0.300947
  N       4.948819      0.672842      0.482963
  C       3.711984      0.146426     -0.010071
  C       3.609310     -0.399238     -1.299017
  C       2.387772     -0.862825     -1.769126
  C       1.229936     -0.800464     -0.976256
  C       1.331817     -0.257809      0.309518
  C       2.559058      0.203681      0.782266
  N       0.042550     -1.339945     -1.504289
  C      -1.230049     -1.395068     -0.926979
  C      -1.821093     -2.674657     -0.882679
  C      -3.060672     -2.896161     -0.326199
  C      -3.827024     -1.840871      0.260902
  C      -3.259430     -0.526307      0.187168
  C      -1.985800     -0.302164     -0.433492
  C      -1.517712      1.094499     -0.684127
  O      -0.499043      1.329035     -1.330010
  C      -2.328026      2.221135     -0.152777
  C      -1.873125      3.534192     -0.339026
  C      -2.606934      4.603308      0.165259
  C      -3.802145      4.370441      0.860324
  C      -4.260440      3.069885      1.045379
  C      -3.525101      1.988296      0.538519
  C      -4.040337      0.609216      0.725690
  O      -5.122083      0.457532      1.317964
  N      -5.013176     -2.092934      0.857121
  S      -3.623507     -4.591517     -0.289513
  O      -5.065012     -4.620754     -0.517575
  O      -2.702645     -5.419387     -1.064757
  O      -3.433828     -5.001636      1.291154
  C       4.888749      1.888059      1.297484
  H       7.262832      0.748812      2.030919
  H       7.665642      1.505404      0.482011
  H       8.191877     -0.159920      0.810687
  H       4.487310     -0.464577     -1.927709
  H       2.323824     -1.269513     -2.776252
  H       0.462663     -0.215624      0.957146
  H       2.612023      0.600820      1.791713
  H       0.214385     -2.095784     -2.154956
  H      -1.273850     -3.524095     -1.280911
  H      -0.945146      3.685299     -0.880309
  H      -2.252656      5.620423      0.019849
  H      -4.373941      5.206934      1.253232
  H      -5.185005      2.864582      1.574037
  H      -5.490273     -2.963190      0.659856
  H      -5.520900     -1.283329      1.202942
  H      -2.599938     -5.504638      1.363462
  H       4.789383      1.677435      2.371910
  H       5.784686      2.493805      1.148775
  H       4.027429      2.480022      0.980718
