52
Coordinates from ORCA-job /home/tchapet/Post-Doc/ARTICLES-DOSSIERS-DES-ARTICLES-EN-REDACTION/NOUVELS-AXES-DE-RECHERCHE-A-REGARDER-URGEMMENT/ARTICLES-EN-REDACTIONS/ARTICLE_MVOTO/Paper2_JCIM/solvatochromic_tddft/opt_new_geometries/17574/17574_opt E -1900.704661217013
  C           7.38432300127464      0.55823729417570      0.95860296959134
  C           6.13255475661736     -0.03858534628374      0.32338413183839
  O           6.18996126521414     -1.08932687648980     -0.30094736384934
  N           4.94881929246229      0.67284162095752      0.48296314100420
  C           3.71198362131609      0.14642623883370     -0.01007085278006
  C           3.60931000847876     -0.39923759495981     -1.29901746746543
  C           2.38777226037424     -0.86282541675824     -1.76912646919182
  C           1.22993583711168     -0.80046352247922     -0.97625625356064
  C           1.33181747694440     -0.25780923258503      0.30951834308325
  C           2.55905758458992      0.20368076406065      0.78226556131118
  N           0.04254990484876     -1.33994483181344     -1.50428861018375
  C          -1.23004946429210     -1.39506826677657     -0.92697863680563
  C          -1.82109293300733     -2.67465733587037     -0.88267852833597
  C          -3.06067156398645     -2.89616102440887     -0.32619930884176
  C          -3.82702363082040     -1.84087088890398      0.26090180773940
  C          -3.25942988680399     -0.52630701421125      0.18716775042302
  C          -1.98579965343906     -0.30216436220040     -0.43349159084857
  C          -1.51771175979123      1.09449865891048     -0.68412666151678
  O          -0.49904295681527      1.32903478069137     -1.33001026912500
  C          -2.32802605016567      2.22113506718323     -0.15277719832894
  C          -1.87312520832888      3.53419195862547     -0.33902572491283
  C          -2.60693432464308      4.60330834724802      0.16525896502103
  C          -3.80214478474591      4.37044096220501      0.86032369779521
  C          -4.26044022803188      3.06988517872132      1.04537913372554
  C          -3.52510065272983      1.98829575198627      0.53851879475417
  C          -4.04033739636927      0.60921566996037      0.72569048996234
  O          -5.12208296420226      0.45753176262699      1.31796389615289
  N          -5.01317604682907     -2.09293384337185      0.85712102225186
  S          -3.62350666701934     -4.59151686613095     -0.28951345617120
  O          -5.06501168166688     -4.62075382975342     -0.51757535818343
  O          -2.70264494040973     -5.41938715522472     -1.06475748345527
  O          -3.43382759895209     -5.00163636579843      1.29115390569465
  C           4.88874915571493      1.88805868397865      1.29748380642419
  H           7.26283181577857      0.74881167169959      2.03091929369324
  H           7.66564203848283      1.50540377591526      0.48201138071343
  H           8.19187681171493     -0.15991970898295      0.81068739739487
  H           4.48730959903382     -0.46457696537915     -1.92770902371503
  H           2.32382440352931     -1.26951272468622     -2.77625158991729
  H           0.46266255972452     -0.21562433562943      0.95714595794615
  H           2.61202340033983      0.60081995462233      1.79171307692803
  H           0.21438537350168     -2.09578357330013     -2.15495559088094
  H          -1.27385033325583     -3.52409499682170     -1.28091131250913
  H          -0.94514567690005      3.68529896210129     -0.88030944034687
  H          -2.25265584557313      5.62042297681627      0.01984881426320
  H          -4.37394147833713      5.20693370029882      1.25323227161609
  H          -5.18500476817959      2.86458241759250      1.57403708221888
  H          -5.49027304485888     -2.96318965382212      0.65985602546367
  H          -5.52090003856726     -1.28332859421543      1.20294157518341
  H          -2.59993755216219     -5.50463840032612      1.36346176142494
  H           4.78938326678554      1.67743545060576      2.37191025979221
  H           5.78468633556524      2.49380472809472      1.14877513085834
  H           4.02742938148033      2.48002233927204      0.98071827665658
