26
Generated from SMILES: N#[N+]Nc1nc([N-]C(C)C)nc(n1)SC
N     -5.036767    -2.846167    -0.078005
N     -3.982539    -2.815393    -0.455287
N     -2.705668    -2.778405    -0.912543
C     -1.778348    -1.809966    -0.418626
N     -0.505824    -1.789050    -0.892686
C      0.383324    -0.873539    -0.431149
N      1.719052    -0.868899    -0.950008
C      2.797526     0.050610    -0.578629
C      2.440988     1.497493    -0.934111
C      3.170043    -0.098190     0.899700
N     -0.005959     0.024236     0.510412
C     -1.275825     0.009070     0.985331
N     -2.161536    -0.907765     0.522269
S     -1.781056     1.198581     2.221578
C     -2.285848     2.436061     0.987382
H     -2.402286    -3.468071    -1.635533
H      3.691568    -0.228806    -1.177059
H      2.135677     1.560593    -2.000155
H      1.614023     1.879111    -0.300564
H      3.326317     2.151631    -0.784798
H      2.354418     0.259049     1.561386
H      3.380326    -1.163959     1.131155
H      4.083671     0.494133     1.119830
H     -1.416560     2.724719     0.359825
H     -2.665937     3.336761     1.511436
H     -3.092782     2.026163     0.344428
