44
Coordinates from ORCA-job /home/tchapet/Post-Doc/ARTICLES-DOSSIERS-DES-ARTICLES-EN-REDACTION/NOUVELS-AXES-DE-RECHERCHE-A-REGARDER-URGEMMENT/ARTICLES-EN-REDACTIONS/ARTICLE_MVOTO/Paper2_JCIM/solvatochromic_tddft/opt_new_geometries/18506/18506_opt E -1236.781254987347
  C      -5.703691     -0.145812      1.650217
  C      -4.812711      0.292077      0.491694
  C      -4.844095     -0.734182     -0.648658
  C      -4.029341     -0.274469     -1.864697
  N      -2.601953     -0.180407     -1.544628
  C      -1.908062      0.937618     -1.237009
  O      -2.418329      2.089527     -1.207857
  C      -0.589449      0.624479     -0.933911
  C      -0.477712     -0.737912     -1.047183
  C      -1.732345     -1.206157     -1.415090
  O      -2.049038     -2.413946     -1.585363
  C       0.700620     -1.415958     -0.725615
  N       0.712242     -2.849934     -0.749790
  C       1.843167     -0.642991     -0.332811
  C       1.725440      0.790448     -0.213137
  C       0.467616      1.422091     -0.488924
  N       0.246444      2.823152     -0.276564
  C       2.876782      1.549433      0.133967
  O       2.831693      2.810104      0.157850
  C       4.097831      0.916090      0.427791
  C       4.213040     -0.486366      0.310613
  C       3.106906     -1.252024     -0.100066
  O       3.267071     -2.489784     -0.284966
  C       5.453616     -1.101867      0.589103
  C       6.554539     -0.339959      0.980679
  C       6.440958      1.042692      1.096199
  C       5.225905      1.670080      0.820701
  H      -5.359845     -1.122282      2.053227
  H      -5.655983      0.610193      2.462111
  H      -6.758092     -0.238378      1.313035
  H      -5.164745      1.278961      0.119994
  H      -3.773898      0.405956      0.869188
  H      -4.452848     -1.709911     -0.286671
  H      -5.896466     -0.887711     -0.973431
  H      -4.409815      0.705139     -2.228113
  H      -4.170447     -1.005374     -2.690208
  H       0.208723     -3.379450     -1.494138
  H       1.091254     -3.393629      0.056509
  H      -0.345622      3.379461     -0.930746
  H       0.542712      3.280677      0.613526
  H       5.577817     -2.174800      0.507832
  H       7.499170     -0.823795      1.193497
  H       7.297478      1.631441      1.398631
  H       5.173463      2.747478      0.919082
44
Coordinates from ORCA-job /home/tchapet/Post-Doc/ARTICLES-DOSSIERS-DES-ARTICLES-EN-REDACTION/NOUVELS-AXES-DE-RECHERCHE-A-REGARDER-URGEMMENT/ARTICLES-EN-REDACTIONS/ARTICLE_MVOTO/Paper2_JCIM/solvatochromic_tddft/opt_new_geometries/18506/18506_opt E -1236.825426300811
  C      -5.810216     -0.167712      1.645190
  C      -4.885852      0.278851      0.507620
  C      -4.887854     -0.727341     -0.654015
  C      -4.045696     -0.270597     -1.856772
  N      -2.625034     -0.176292     -1.536568
  C      -1.933944      0.977028     -1.232134
  O      -2.442060      2.112705     -1.218657
  C      -0.576899      0.637548     -0.921679
  C      -0.466833     -0.742732     -1.031575
  C      -1.757293     -1.238502     -1.408643
  O      -2.081131     -2.427449     -1.583096
  C       0.713972     -1.422203     -0.714145
  N       0.713250     -2.818808     -0.747036
  C       1.856200     -0.642825     -0.330058
  C       1.741393      0.795640     -0.215150
  C       0.485919      1.435937     -0.486005
  N       0.264727      2.802406     -0.298139
  C       2.920084      1.574928      0.133684
  O       2.885448      2.825600      0.167815
  C       4.169736      0.919703      0.428115
  C       4.281669     -0.482422      0.316046
  C       3.147320     -1.271676     -0.093817
  O       3.310736     -2.501664     -0.258011
  C       5.515057     -1.101192      0.592294
  C       6.617561     -0.341814      0.976697
  C       6.506723      1.046609      1.087664
  C       5.293542      1.673718      0.814079
  H      -5.491347     -1.144988      2.043672
  H      -5.782123      0.566617      2.466418
  H      -6.850834     -0.250238      1.290682
  H      -5.216542      1.266122      0.142640
  H      -3.864094      0.387334      0.907708
  H      -4.513586     -1.702736     -0.300473
  H      -5.925643     -0.873577     -1.001786
  H      -4.399173      0.705305     -2.221482
  H      -4.165210     -0.994917     -2.678066
  H       0.177062     -3.315810     -1.454502
  H       1.110900     -3.359912      0.015311
  H      -0.351490      3.314137     -0.925347
  H       0.581240      3.272084      0.545249
  H       5.622326     -2.176451      0.511534
  H       7.563048     -0.830081      1.188967
  H       7.366003      1.638125      1.386235
  H       5.228940      2.751542      0.905403
44
Coordinates from ORCA-job /home/tchapet/Post-Doc/ARTICLES-DOSSIERS-DES-ARTICLES-EN-REDACTION/NOUVELS-AXES-DE-RECHERCHE-A-REGARDER-URGEMMENT/ARTICLES-EN-REDACTIONS/ARTICLE_MVOTO/Paper2_JCIM/solvatochromic_tddft/opt_new_geometries/18506/18506_opt E -1236.845373824655
  C      -5.891292     -0.179295      1.629328
  C      -4.935704      0.269603      0.513734
  C      -4.913805     -0.720624     -0.661686
  C      -4.043147     -0.268772     -1.846815
  N      -2.627601     -0.174887     -1.519164
  C      -1.947179      1.006626     -1.216480
  O      -2.451977      2.123819     -1.220394
  C      -0.563545      0.640961     -0.897785
  C      -0.454568     -0.744432     -1.005436
  C      -1.768367     -1.266948     -1.393522
  O      -2.095442     -2.434684     -1.577596
  C       0.725809     -1.432311     -0.693703
  N       0.712609     -2.803425     -0.743911
  C       1.863590     -0.641412     -0.318464
  C       1.750555      0.794998     -0.206557
  C       0.499264      1.447652     -0.469435
  N       0.272739      2.791206     -0.307832
  C       2.946389      1.595791      0.140382
  O       2.916985      2.832680      0.186679
  C       4.219781      0.920486      0.426470
  C       4.329809     -0.477359      0.317562
  C       3.173497     -1.290249     -0.084499
  O       3.337245     -2.508870     -0.229564
  C       5.557287     -1.099612      0.586016
  C       6.662440     -0.341029      0.960421
  C       6.552839      1.051315      1.068873
  C       5.338715      1.677248      0.802330
  H      -5.598336     -1.160258      2.025654
  H      -5.879919      0.538128      2.459230
  H      -6.921855     -0.250852      1.257989
  H      -5.242692      1.260488      0.151781
  H      -3.926143      0.371281      0.933848
  H      -4.558269     -1.699865     -0.314566
  H      -5.939122     -0.857386     -1.035291
  H      -4.368116      0.709804     -2.213455
  H      -4.142965     -0.989191     -2.666869
  H       0.113909     -3.267724     -1.409866
  H       1.146987     -3.361522     -0.028508
  H      -0.398323      3.254248     -0.901771
  H       0.623382      3.292680      0.490617
  H       5.644498     -2.177166      0.502702
  H       7.609385     -0.831510      1.167791
  H       7.414403      1.645288      1.360710
  H       5.256252      2.755080      0.886923
44
Coordinates from ORCA-job /home/tchapet/Post-Doc/ARTICLES-DOSSIERS-DES-ARTICLES-EN-REDACTION/NOUVELS-AXES-DE-RECHERCHE-A-REGARDER-URGEMMENT/ARTICLES-EN-REDACTIONS/ARTICLE_MVOTO/Paper2_JCIM/solvatochromic_tddft/opt_new_geometries/18506/18506_opt E -1236.858930230764
  C      -5.958964     -0.181174      1.597929
  C      -4.975399      0.265161      0.505443
  C      -4.931400     -0.714868     -0.676968
  C      -4.031351     -0.268689     -1.841503
  N      -2.619437     -0.176574     -1.492611
  C      -1.948318      1.019452     -1.188313
  O      -2.450032      2.131086     -1.215264
  C      -0.552496      0.636186     -0.856214
  C      -0.443850     -0.745395     -0.963445
  C      -1.767248     -1.284403     -1.367771
  O      -2.093179     -2.442564     -1.572872
  C       0.736385     -1.442963     -0.659949
  N       0.715738     -2.807964     -0.740589
  C       1.871244     -0.641058     -0.294400
  C       1.758634      0.791073     -0.183108
  C       0.508728      1.453528     -0.434824
  N       0.275653      2.794708     -0.304458
  C       2.962096      1.607683      0.158016
  O       2.930241      2.837371      0.225824
  C       4.252655      0.920651      0.420619
  C       4.362229     -0.472794      0.312414
  C       3.190941     -1.303368     -0.068133
  O       3.351149     -2.518747     -0.190287
  C       5.589934     -1.096780      0.566802
  C       6.699247     -0.336625      0.925549
  C       6.589673      1.056866      1.033691
  C       5.371490      1.681326      0.782445
  H      -5.688815     -1.167308      1.994409
  H      -5.962767      0.526152      2.434780
  H      -6.981905     -0.243292      1.207680
  H      -5.259293      1.261453      0.142745
  H      -3.974530      0.361049      0.944693
  H      -4.595427     -1.700575     -0.332122
  H      -5.946084     -0.843239     -1.078151
  H      -4.331644      0.715737     -2.210495
  H      -4.114543     -0.986096     -2.664216
  H       0.005426     -3.241267     -1.310658
  H       1.222693     -3.390844     -0.098278
  H      -0.499897      3.195399     -0.809593
  H       0.693487      3.342890      0.426435
  H       5.661587     -2.175625      0.480662
  H       7.649367     -0.826472      1.121961
  H       7.454420      1.652429      1.314326
  H       5.273563      2.758486      0.863668
44
Coordinates from ORCA-job /home/tchapet/Post-Doc/ARTICLES-DOSSIERS-DES-ARTICLES-EN-REDACTION/NOUVELS-AXES-DE-RECHERCHE-A-REGARDER-URGEMMENT/ARTICLES-EN-REDACTIONS/ARTICLE_MVOTO/Paper2_JCIM/solvatochromic_tddft/opt_new_geometries/18506/18506_opt E -1236.872732265968
  C      -5.999938     -0.178177      1.571959
  C      -4.999750      0.264058      0.495400
  C      -4.941564     -0.710482     -0.689266
  C      -4.020493     -0.270083     -1.837837
  N      -2.610789     -0.179964     -1.466868
  C      -1.944048      1.021285     -1.164676
  O      -2.441954      2.134425     -1.211370
  C      -0.544624      0.628750     -0.818520
  C      -0.435809     -0.745875     -0.926129
  C      -1.761149     -1.292673     -1.346351
  O      -2.082782     -2.448542     -1.571839
  C       0.747395     -1.450561     -0.638578
  N       0.729279     -2.807257     -0.763127
  C       1.876275     -0.640044     -0.276600
  C       1.763433      0.786156     -0.164822
  C       0.517477      1.456513     -0.410752
  N       0.286380      2.796391     -0.323322
  C       2.962469      1.612227      0.182708
  O       2.914980      2.838073      0.285900
  C       4.265571      0.920551      0.417108
  C       4.375586     -0.470433      0.308245
  C       3.193738     -1.312372     -0.046382
  O       3.339398     -2.531623     -0.134787
  C       5.605676     -1.095253      0.550853
  C       6.717869     -0.332453      0.895424
  C       6.607687      1.061117      1.004359
  C       5.385868      1.684766      0.768260
  H      -5.745017     -1.168301      1.968924
  H      -6.013691      0.523748      2.413111
  H      -7.018474     -0.234873      1.169171
  H      -5.266290      1.264908      0.131145
  H      -4.003089      0.357078      0.945697
  H      -4.622321     -1.702454     -0.345420
  H      -5.948575     -0.832735     -1.111548
  H      -4.302532      0.719607     -2.208139
  H      -4.091861     -0.985132     -2.663287
  H      -0.107396     -3.214695     -1.159032
  H       1.336199     -3.406876     -0.233262
  H      -0.608367      3.124873     -0.661331
  H       0.798505      3.393463      0.301091
  H       5.665322     -2.174838      0.463190
  H       7.671147     -0.820225      1.081882
  H       7.475261      1.657109      1.275505
  H       5.274996      2.760822      0.849181
44
Coordinates from ORCA-job /home/tchapet/Post-Doc/ARTICLES-DOSSIERS-DES-ARTICLES-EN-REDACTION/NOUVELS-AXES-DE-RECHERCHE-A-REGARDER-URGEMMENT/ARTICLES-EN-REDACTIONS/ARTICLE_MVOTO/Paper2_JCIM/solvatochromic_tddft/opt_new_geometries/18506/18506_opt E -1236.881637076675
  C      -5.992203     -0.178110      1.587155
  C      -4.998745      0.263254      0.506404
  C      -4.945238     -0.709859     -0.678520
  C      -4.025321     -0.272337     -1.827978
  N      -2.614001     -0.182530     -1.454582
  C      -1.944233      1.016893     -1.163044
  O      -2.440697      2.133405     -1.208154
  C      -0.545108      0.626430     -0.819882
  C      -0.436205     -0.745272     -0.926944
  C      -1.761355     -1.291119     -1.343540
  O      -2.080865     -2.450494     -1.566693
  C       0.755626     -1.451306     -0.663464
  N       0.764203     -2.798065     -0.838089
  C       1.872355     -0.637374     -0.285425
  C       1.759634      0.783826     -0.174443
  C       0.524672      1.461322     -0.435996
  N       0.320349      2.803410     -0.400347
  C       2.940598      1.608538      0.204311
  O       2.868275      2.832917      0.343819
  C       4.246669      0.919027      0.429993
  C       4.357017     -0.473291      0.321493
  C       3.172348     -1.315504     -0.023895
  O       3.294139     -2.542824     -0.075894
  C       5.587171     -1.098662      0.567506
  C       6.698354     -0.334395      0.911798
  C       6.587959      1.059187      1.020226
  C       5.366733      1.683846      0.784130
  H      -5.736586     -1.169101      1.982272
  H      -6.002845      0.522610      2.429509
  H      -7.013145     -0.236011      1.189915
  H      -5.262939      1.265657      0.143495
  H      -3.998470      0.357860      0.949431
  H      -4.632093     -1.705156     -0.337448
  H      -5.952564     -0.830026     -1.101613
  H      -4.303051      0.719448     -2.196477
  H      -4.096817     -0.985845     -2.654523
  H      -0.125821     -3.218399     -1.084453
  H       1.480039     -3.384395     -0.442887
  H      -0.627460      3.112171     -0.589446
  H       0.940409      3.426339      0.089477
  H       5.641245     -2.178693      0.480914
  H       7.652038     -0.820664      1.099956
  H       7.455990      1.653973      1.292450
  H       5.249941      2.759319      0.865352
44
Coordinates from ORCA-job /home/tchapet/Post-Doc/ARTICLES-DOSSIERS-DES-ARTICLES-EN-REDACTION/NOUVELS-AXES-DE-RECHERCHE-A-REGARDER-URGEMMENT/ARTICLES-EN-REDACTIONS/ARTICLE_MVOTO/Paper2_JCIM/solvatochromic_tddft/opt_new_geometries/18506/18506_opt E -1236.884555958434
  C      -5.954981     -0.183486      1.628077
  C      -4.983713      0.262057      0.530054
  C      -4.946685     -0.711284     -0.654966
  C      -4.041033     -0.273522     -1.815179
  N      -2.626047     -0.182973     -1.454510
  C      -1.950151      1.013158     -1.176810
  O      -2.446564      2.131651     -1.205807
  C      -0.550578      0.629517     -0.856407
  C      -0.442151     -0.742861     -0.961535
  C      -1.768933     -1.285834     -1.353079
  O      -2.088799     -2.449955     -1.557201
  C       0.759585     -1.444511     -0.721536
  N       0.800786     -2.784728     -0.913579
  C       1.866845     -0.633530     -0.320464
  C       1.754835      0.785777     -0.211824
  C       0.529961      1.465559     -0.498592
  N       0.359636      2.809196     -0.484432
  C       2.913662      1.602543      0.211097
  O       2.826145      2.829014      0.364369
  C       4.212927      0.916387      0.454811
  C       4.322944     -0.478985      0.348338
  C       3.143687     -1.314289     -0.011995
  O       3.250033     -2.548337     -0.047166
  C       5.550887     -1.104546      0.607008
  C       6.658948     -0.340702      0.961817
  C       6.549124      1.052905      1.067924
  C       5.331465      1.679410      0.819155
  H      -5.686130     -1.172836      2.019505
  H      -5.954924      0.518627      2.469733
  H      -6.982525     -0.248199      1.248244
  H      -5.258091      1.263724      0.171560
  H      -3.975449      0.361347      0.954495
  H      -4.631572     -1.707727     -0.317991
  H      -5.959768     -0.830804     -1.065592
  H      -4.324049      0.718546     -2.179943
  H      -4.120591     -0.986232     -2.642010
  H      -0.083638     -3.248554     -1.091307
  H       1.608583     -3.318718     -0.626815
  H      -0.588611      3.150954     -0.598484
  H       1.077994      3.412646     -0.110777
  H       5.604931     -2.184773      0.521945
  H       7.610707     -0.826691      1.159574
  H       7.415843      1.645873      1.347764
  H       5.215452      2.755190      0.898398
44
Coordinates from ORCA-job /home/tchapet/Post-Doc/ARTICLES-DOSSIERS-DES-ARTICLES-EN-REDACTION/NOUVELS-AXES-DE-RECHERCHE-A-REGARDER-URGEMMENT/ARTICLES-EN-REDACTIONS/ARTICLE_MVOTO/Paper2_JCIM/solvatochromic_tddft/opt_new_geometries/18506/18506_opt E -1236.885285862745
  C      -5.943331     -0.192042      1.633397
  C      -4.981796      0.260926      0.529623
  C      -4.948597     -0.710500     -0.657329
  C      -4.044832     -0.269628     -1.818037
  N      -2.630188     -0.179956     -1.458404
  C      -1.950852      1.013288     -1.182894
  O      -2.445756      2.132970     -1.202761
  C      -0.553211      0.632291     -0.872163
  C      -0.445971     -0.739971     -0.975421
  C      -1.772009     -1.280386     -1.355752
  O      -2.091892     -2.446777     -1.548437
  C       0.753887     -1.441357     -0.733077
  N       0.785845     -2.784180     -0.904678
  C       1.869121     -0.634440     -0.328750
  C       1.757865      0.790388     -0.221636
  C       0.526824      1.466637     -0.514245
  N       0.349285      2.808661     -0.483422
  C       2.918334      1.600965      0.205254
  O       2.848349      2.832019      0.342073
  C       4.208480      0.915046      0.465185
  C       4.317269     -0.480484      0.360852
  C       3.145405     -1.310775     -0.013101
  O       3.267392     -2.544440     -0.061243
  C       5.546151     -1.105432      0.617104
  C       6.655106     -0.342740      0.971074
  C       6.546542      1.050640      1.074996
  C       5.329314      1.677128      0.824831
  H      -5.664336     -1.179718      2.022341
  H      -5.941961      0.510404      2.475012
  H      -6.972748     -0.262958      1.259326
  H      -5.264862      1.261717      0.175117
  H      -3.971239      0.363464      0.947982
  H      -4.632789     -1.707520     -0.322413
  H      -5.963291     -0.828117     -1.065018
  H      -4.330854      0.722560     -2.180692
  H      -4.125522     -0.980616     -2.646617
  H      -0.094944     -3.255901     -1.073119
  H       1.611093     -3.296189     -0.622575
  H      -0.595815      3.158443     -0.588825
  H       1.088961      3.394013     -0.118784
  H       5.602718     -2.185467      0.531523
  H       7.606905     -0.829016      1.167479
  H       7.414254      1.643426      1.351809
  H       5.217694      2.753623      0.900283
44
Coordinates from ORCA-job /home/tchapet/Post-Doc/ARTICLES-DOSSIERS-DES-ARTICLES-EN-REDACTION/NOUVELS-AXES-DE-RECHERCHE-A-REGARDER-URGEMMENT/ARTICLES-EN-REDACTIONS/ARTICLE_MVOTO/Paper2_JCIM/solvatochromic_tddft/opt_new_geometries/18506/18506_opt E -1236.885579676011
  C      -5.933587     -0.203114      1.651040
  C      -4.981558      0.257817      0.541567
  C      -4.952253     -0.710126     -0.648619
  C      -4.051131     -0.266023     -1.810457
  N      -2.635830     -0.176945     -1.456194
  C      -1.953783      1.017556     -1.186152
  O      -2.448007      2.137054     -1.199031
  C      -0.554324      0.635962     -0.887734
  C      -0.448616     -0.737384     -0.988159
  C      -1.777470     -1.278982     -1.354310
  O      -2.099227     -2.446153     -1.535547
  C       0.751424     -1.438167     -0.747857
  N       0.786771     -2.780599     -0.910528
  C       1.871071     -0.632545     -0.350664
  C       1.761192      0.794299     -0.246260
  C       0.527713      1.469055     -0.535133
  N       0.356692      2.810437     -0.501197
  C       2.922454      1.603325      0.177756
  O       2.856194      2.836024      0.310128
  C       4.204496      0.914977      0.465236
  C       4.311910     -0.481570      0.363636
  C       3.146465     -1.308147     -0.034668
  O       3.269969     -2.542609     -0.082617
  C       5.536354     -1.108011      0.636013
  C       6.641889     -0.347597      1.004729
  C       6.534732      1.046253      1.105909
  C       5.322391      1.674651      0.838191
  H      -5.645320     -1.189022      2.037001
  H      -5.931306      0.498459      2.493120
  H      -6.964631     -0.280100      1.283385
  H      -5.272620      1.257807      0.192087
  H      -3.969034      0.363605      0.953579
  H      -4.635539     -1.707749     -0.317280
  H      -5.968247     -0.825678     -1.052955
  H      -4.338839      0.726617     -2.169854
  H      -4.134225     -0.974681     -2.640670
  H      -0.080351     -3.262033     -1.112205
  H       1.632031     -3.271074     -0.646909
  H      -0.575920      3.178234     -0.639986
  H       1.120420      3.380414     -0.160065
  H       5.593775     -2.187901      0.550964
  H       7.590104     -0.835754      1.213616
  H       7.399931      1.637846      1.393089
  H       5.213841      2.751573      0.909874
44
Coordinates from ORCA-job /home/tchapet/Post-Doc/ARTICLES-DOSSIERS-DES-ARTICLES-EN-REDACTION/NOUVELS-AXES-DE-RECHERCHE-A-REGARDER-URGEMMENT/ARTICLES-EN-REDACTIONS/ARTICLE_MVOTO/Paper2_JCIM/solvatochromic_tddft/opt_new_geometries/18506/18506_opt E -1236.885681582530
  C      -5.946094     -0.210202      1.645796
  C      -4.991436      0.255387      0.540165
  C      -4.956906     -0.709168     -0.652712
  C      -4.049696     -0.262590     -1.808902
  N      -2.635897     -0.174827     -1.449134
  C      -1.953188      1.020953     -1.179892
  O      -2.445628      2.140792     -1.197802
  C      -0.553320      0.637126     -0.880622
  C      -0.448681     -0.736312     -0.979314
  C      -1.778440     -1.278939     -1.345326
  O      -2.100125     -2.445452     -1.528682
  C       0.750371     -1.438236     -0.737414
  N       0.782551     -2.781492     -0.887405
  C       1.872400     -0.632221     -0.346882
  C       1.763567      0.795167     -0.244085
  C       0.528795      1.470188     -0.528126
  N       0.356596      2.810394     -0.484562
  C       2.926433      1.604126      0.174980
  O       2.866561      2.839507      0.286261
  C       4.209472      0.915260      0.461527
  C       4.315885     -0.481494      0.361356
  C       3.148323     -1.307996     -0.034380
  O       3.276444     -2.541409     -0.100820
  C       5.539856     -1.108483      0.633989
  C       6.645950     -0.348619      1.002035
  C       6.539774      1.045635      1.101821
  C       5.327893      1.674511      0.833333
  H      -5.656172     -1.195598      2.031445
  H      -5.948895      0.490099      2.488785
  H      -6.975576     -0.289786      1.274693
  H      -5.283635      1.255573      0.192539
  H      -3.980553      0.362083      0.955558
  H      -4.642300     -1.707710     -0.322590
  H      -5.970923     -0.822746     -1.062069
  H      -4.335067      0.731130     -2.166908
  H      -4.129777     -0.968901     -2.641366
  H      -0.079126     -3.261745     -1.112135
  H       1.635544     -3.265697     -0.636794
  H      -0.570217      3.182165     -0.647156
  H       1.129459      3.376853     -0.158010
  H       5.596630     -2.188494      0.550360
  H       7.593675     -0.837539      1.211528
  H       7.405216      1.637149      1.388561
  H       5.220258      2.751557      0.904224
44
Coordinates from ORCA-job /home/tchapet/Post-Doc/ARTICLES-DOSSIERS-DES-ARTICLES-EN-REDACTION/NOUVELS-AXES-DE-RECHERCHE-A-REGARDER-URGEMMENT/ARTICLES-EN-REDACTIONS/ARTICLE_MVOTO/Paper2_JCIM/solvatochromic_tddft/opt_new_geometries/18506/18506_opt E -1236.885734541647
  C      -5.955163     -0.214362      1.640678
  C      -4.998126      0.253746      0.538233
  C      -4.959650     -0.708682     -0.656157
  C      -4.048074     -0.260320     -1.808064
  N      -2.635449     -0.173640     -1.443100
  C      -1.952039      1.022663     -1.175759
  O      -2.442840      2.143019     -1.200537
  C      -0.552681      0.637246     -0.871941
  C      -0.448729     -0.735691     -0.969562
  C      -1.778299     -1.278494     -1.339502
  O      -2.099323     -2.444304     -1.527996
  C       0.749888     -1.438888     -0.726931
  N       0.777847     -2.783349     -0.863481
  C       1.874145     -0.631648     -0.345572
  C       1.765976      0.795525     -0.243755
  C       0.529574      1.470891     -0.519629
  N       0.354572      2.809980     -0.464668
  C       2.932186      1.605654      0.161314
  O       2.872915      2.841864      0.267092
  C       4.214975      0.916131      0.451103
  C       4.320835     -0.480641      0.351634
  C       3.152882     -1.306785     -0.046425
  O       3.280703     -2.540304     -0.117203
  C       5.543098     -1.108573      0.629609
  C       6.648100     -0.349376      1.002404
  C       6.542460      1.045043      1.101526
  C       5.332209      1.674783      0.827607
  H      -5.664602     -1.199494      2.026628
  H      -5.961836      0.485379      2.484168
  H      -6.983475     -0.295686      1.266590
  H      -5.290525      1.254250      0.191430
  H      -3.988368      0.361021      0.956321
  H      -4.646615     -1.708001     -0.326695
  H      -5.972177     -0.821119     -1.069518
  H      -4.331532      0.734486     -2.164854
  H      -4.125979     -0.964844     -2.642362
  H      -0.082755     -3.260629     -1.098661
  H       1.636762     -3.265587     -0.628083
  H      -0.570487      3.181260     -0.638411
  H       1.134016      3.377189     -0.154156
  H       5.599399     -2.188680      0.546155
  H       7.594378     -0.839104      1.216464
  H       7.406854      1.636086      1.392338
  H       5.224950      2.751984      0.897597
44
Coordinates from ORCA-job /home/tchapet/Post-Doc/ARTICLES-DOSSIERS-DES-ARTICLES-EN-REDACTION/NOUVELS-AXES-DE-RECHERCHE-A-REGARDER-URGEMMENT/ARTICLES-EN-REDACTIONS/ARTICLE_MVOTO/Paper2_JCIM/solvatochromic_tddft/opt_new_geometries/18506/18506_opt E -1236.885761579746
  C      -5.969408     -0.217601      1.628847
  C      -5.007302      0.252341      0.531884
  C      -4.962408     -0.708174     -0.663677
  C      -4.044287     -0.257871     -1.809441
  N      -2.633909     -0.172632     -1.435070
  C      -1.950291      1.023159     -1.167370
  O      -2.439435      2.144148     -1.198464
  C      -0.553166      0.636546     -0.853855
  C      -0.449769     -0.735815     -0.950781
  C      -1.777437     -1.277473     -1.330093
  O      -2.097538     -2.442711     -1.524028
  C       0.748275     -1.440275     -0.705901
  N       0.774217     -2.785179     -0.836356
  C       1.873842     -0.632072     -0.331480
  C       1.766268      0.794768     -0.230373
  C       0.528960      1.470590     -0.499918
  N       0.352920      2.809137     -0.440256
  C       2.936028      1.606000      0.159080
  O       2.878441      2.843228      0.256716
  C       4.220191      0.916675      0.443853
  C       4.325505     -0.480140      0.344911
  C       3.155538     -1.306361     -0.047470
  O       3.283986     -2.539657     -0.125362
  C       5.548263     -1.108334      0.620216
  C       6.654183     -0.349066      0.990347
  C       6.549094      1.045390      1.088930
  C       5.338452      1.675432      0.817163
  H      -5.679801     -1.202770      2.015616
  H      -5.981401      0.481505      2.472889
  H      -6.995719     -0.299925      1.249323
  H      -5.298449      1.253317      0.185022
  H      -3.999510      0.359753      0.954903
  H      -4.651635     -1.708284     -0.334155
  H      -5.972572     -0.819757     -1.083176
  H      -4.324940      0.738110     -2.165390
  H      -4.117972     -0.960379     -2.645889
  H      -0.085322     -3.259669     -1.081327
  H       1.639510     -3.266404     -0.622502
  H      -0.570516      3.179757     -0.624280
  H       1.138882      3.379053     -0.151317
  H       5.603986     -2.188505      0.536726
  H       7.600660     -0.838954      1.203079
  H       7.414111      1.636343      1.378009
  H       5.231473      2.752753      0.886287
44
Coordinates from ORCA-job /home/tchapet/Post-Doc/ARTICLES-DOSSIERS-DES-ARTICLES-EN-REDACTION/NOUVELS-AXES-DE-RECHERCHE-A-REGARDER-URGEMMENT/ARTICLES-EN-REDACTIONS/ARTICLE_MVOTO/Paper2_JCIM/solvatochromic_tddft/opt_new_geometries/18506/18506_opt E -1236.885786168047
  C      -5.978073     -0.218616      1.621779
  C      -5.012773      0.251994      0.528037
  C      -4.963713     -0.708013     -0.667727
  C      -4.041867     -0.256739     -1.810115
  N      -2.632911     -0.172311     -1.430020
  C      -1.949451      1.022887     -1.160992
  O      -2.437721      2.144240     -1.194688
  C      -0.553396      0.636030     -0.843715
  C      -0.450238     -0.736207     -0.940513
  C      -1.777068     -1.277032     -1.323426
  O      -2.096645     -2.442043     -1.519916
  C       0.748016     -1.440960     -0.696566
  N       0.771978     -2.786277     -0.823412
  C       1.874402     -0.632490     -0.325347
  C       1.767001      0.794356     -0.224356
  C       0.529165      1.470201     -0.490850
  N       0.351803      2.808454     -0.428077
  C       2.938357      1.606047      0.159085
  O       2.881534      2.843384      0.254894
  C       4.223052      0.916894      0.440897
  C       4.328274     -0.479902      0.341949
  C       3.157654     -1.306317     -0.047377
  O       3.286840     -2.539338     -0.127190
  C       5.551646     -1.108003      0.614848
  C       6.658198     -0.348541      0.982749
  C       6.553195      1.045855      1.081366
  C       5.341995      1.675838      0.811863
  H      -5.689267     -1.203761      2.009231
  H      -5.993178      0.480259      2.465965
  H      -7.003111     -0.301394      1.238903
  H      -5.303125      1.253028      0.180600
  H      -4.006270      0.359682      0.954102
  H      -4.653867     -1.708253     -0.337699
  H      -5.972434     -0.819752     -1.090718
  H      -4.320933      0.739755     -2.165817
  H      -4.112824     -0.958222     -2.647633
  H      -0.087129     -3.259010     -1.073559
  H       1.638617     -3.268922     -0.619107
  H      -0.570910      3.178547     -0.617136
  H       1.139150      3.381082     -0.148952
  H       5.607217     -2.188143      0.531056
  H       7.605102     -0.838304      1.193880
  H       7.418710      1.636859      1.368861
  H       5.234999      2.753159      0.880710
44
Coordinates from ORCA-job /home/tchapet/Post-Doc/ARTICLES-DOSSIERS-DES-ARTICLES-EN-REDACTION/NOUVELS-AXES-DE-RECHERCHE-A-REGARDER-URGEMMENT/ARTICLES-EN-REDACTIONS/ARTICLE_MVOTO/Paper2_JCIM/solvatochromic_tddft/opt_new_geometries/18506/18506_opt E -1236.885793348612
  C      -5.991667     -0.221014      1.611560
  C      -5.021989      0.251392      0.522583
  C      -4.965798     -0.708098     -0.673265
  C      -4.038414     -0.254954     -1.810499
  N      -2.631503     -0.171528     -1.422302
  C      -1.948311      1.022901     -1.151284
  O      -2.435581      2.144751     -1.187165
  C      -0.553880      0.635910     -0.828931
  C      -0.451032     -0.736444     -0.925368
  C      -1.776462     -1.276061     -1.313290
  O      -2.095382     -2.441037     -1.511864
  C       0.747723     -1.441110     -0.683443
  N       0.769481     -2.786788     -0.805104
  C       1.875379     -0.632504     -0.317018
  C       1.768491      0.794548     -0.216508
  C       0.529554      1.470143     -0.478573
  N       0.350008      2.807719     -0.411035
  C       2.942160      1.606392      0.160436
  O       2.887333      2.843872      0.253301
  C       4.227267      0.917004      0.438090
  C       4.331789     -0.479912      0.339813
  C       3.160040     -1.306289     -0.044820
  O       3.289432     -2.539051     -0.125913
  C       5.556116     -1.108083      0.608462
  C       6.664183     -0.348574      0.971642
  C       6.559915      1.045845      1.069506
  C       5.347910      1.675972      0.804018
  H      -5.703179     -1.205841      2.000061
  H      -6.012018      0.477536      2.455898
  H      -7.014698     -0.305354      1.223664
  H      -5.312123      1.252121      0.174079
  H      -4.017581      0.360474      0.953207
  H      -4.656578     -1.708170     -0.342239
  H      -5.972233     -0.820930     -1.101460
  H      -4.315374      0.742275     -2.165694
  H      -4.105029     -0.954779     -2.649726
  H      -0.087470     -3.257896     -1.065598
  H       1.639442     -3.270355     -0.619781
  H      -0.570451      3.177947     -0.610649
  H       1.139793      3.384437     -0.149150
  H       5.610968     -2.188258      0.524997
  H       7.611772     -0.838324      1.179737
  H       7.426690      1.636761      1.353387
  H       5.241307      2.753352      0.872111
44
Coordinates from ORCA-job /home/tchapet/Post-Doc/ARTICLES-DOSSIERS-DES-ARTICLES-EN-REDACTION/NOUVELS-AXES-DE-RECHERCHE-A-REGARDER-URGEMMENT/ARTICLES-EN-REDACTIONS/ARTICLE_MVOTO/Paper2_JCIM/solvatochromic_tddft/opt_new_geometries/18506/18506_opt E -1236.885796127890
  C      -5.995594     -0.221059      1.609003
  C      -5.024899      0.251912      0.521109
  C      -4.966589     -0.707807     -0.674499
  C      -4.037660     -0.254454     -1.810409
  N      -2.631178     -0.171431     -1.420589
  C      -1.947911      1.022799     -1.148591
  O      -2.434834      2.144826     -1.184511
  C      -0.553870      0.635480     -0.825516
  C      -0.451243     -0.737114     -0.922145
  C      -1.776563     -1.276290     -1.310606
  O      -2.095617     -2.441220     -1.509362
  C       0.747475     -1.441863     -0.680865
  N       0.767523     -2.787824     -0.800633
  C       1.876024     -0.633446     -0.315566
  C       1.768976      0.793715     -0.214723
  C       0.529861      1.469200     -0.475658
  N       0.350516      2.806803     -0.407120
  C       2.942490      1.605853      0.162729
  O       2.886699      2.843075      0.257231
  C       4.228105      0.916958      0.438969
  C       4.333196     -0.479846      0.339932
  C       3.161499     -1.306783     -0.043666
  O       3.292052     -2.539246     -0.125380
  C       5.558412     -1.107390      0.606069
  C       6.666668     -0.347495      0.967752
  C       6.561765      1.046830      1.066536
  C       5.348967      1.676344      0.803388
  H      -5.706918     -1.205665      1.997877
  H      -6.017375      0.477512      2.453272
  H      -7.018094     -0.306041      1.219885
  H      -5.315381      1.252324      0.172052
  H      -4.021118      0.361774      0.952936
  H      -4.657288     -1.707630     -0.342875
  H      -5.972379     -0.821188     -1.104009
  H      -4.313992      0.742914     -2.165654
  H      -4.103211     -0.954016     -2.649933
  H      -0.088209     -3.258185     -1.066268
  H       1.637359     -3.272576     -0.618920
  H      -0.568460      3.178350     -0.610866
  H       1.141565      3.384474     -0.151907
  H       5.613705     -2.187507      0.522141
  H       7.614929     -0.836783      1.173883
  H       7.428735      1.638091      1.349118
  H       5.241860      2.753623      0.872256
44
Coordinates from ORCA-job /home/tchapet/Post-Doc/ARTICLES-DOSSIERS-DES-ARTICLES-EN-REDACTION/NOUVELS-AXES-DE-RECHERCHE-A-REGARDER-URGEMMENT/ARTICLES-EN-REDACTIONS/ARTICLE_MVOTO/Paper2_JCIM/solvatochromic_tddft/opt_new_geometries/18506/18506_opt E -1236.885804841979
  C      -5.997013     -0.221471      1.608150
  C      -5.026268      0.252029      0.520439
  C      -4.966807     -0.708052     -0.674868
  C      -4.037466     -0.254651     -1.810407
  N      -2.631062     -0.171337     -1.420493
  C      -1.948069      1.023129     -1.147898
  O      -2.435192      2.145039     -1.183840
  C      -0.553941      0.635950     -0.824977
  C      -0.451160     -0.736819     -0.921510
  C      -1.776335     -1.276289     -1.310024
  O      -2.095226     -2.441239     -1.508822
  C       0.747467     -1.441184     -0.679857
  N       0.767911     -2.787228     -0.799081
  C       1.876015     -0.632829     -0.314735
  C       1.769172      0.794431     -0.214091
  C       0.529559      1.469673     -0.474849
  N       0.349091      2.807120     -0.404870
  C       2.943246      1.606185      0.163783
  O       2.888286      2.843367      0.258163
  C       4.228858      0.916830      0.439464
  C       4.333360     -0.480035      0.341039
  C       3.161109     -1.306659     -0.041754
  O       3.290456     -2.539320     -0.121656
  C       5.558611     -1.107864      0.606305
  C       6.667564     -0.348237      0.966307
  C       6.563294      1.046234      1.064359
  C       5.350431      1.675976      0.802194
  H      -5.707704     -1.205768      1.997290
  H      -6.019541      0.477249      2.452263
  H      -7.019318     -0.307239      1.218733
  H      -5.317533      1.252050      0.170965
  H      -4.022775      0.362830      0.952647
  H      -4.657034     -1.707554     -0.342744
  H      -5.972319     -0.822080     -1.104785
  H      -4.313879      0.742599     -2.165913
  H      -4.102555     -0.954379     -2.649837
  H      -0.086607     -3.258277     -1.067252
  H       1.638685     -3.271463     -0.620922
  H      -0.569030      3.178982     -0.611671
  H       1.139714      3.385425     -0.150178
  H       5.613453     -2.188060      0.523037
  H       7.615906     -0.837753      1.171522
  H       7.430827      1.637357      1.345496
  H       5.243820      2.753333      0.870747
44
Coordinates from ORCA-job /home/tchapet/Post-Doc/ARTICLES-DOSSIERS-DES-ARTICLES-EN-REDACTION/NOUVELS-AXES-DE-RECHERCHE-A-REGARDER-URGEMMENT/ARTICLES-EN-REDACTIONS/ARTICLE_MVOTO/Paper2_JCIM/solvatochromic_tddft/opt_new_geometries/18506/18506_opt E -1236.885799919457
  C      -5.995476     -0.220892      1.608995
  C      -5.025291      0.252363      0.520660
  C      -4.966533     -0.707957     -0.674491
  C      -4.037764     -0.254953     -1.810638
  N      -2.631136     -0.171513     -1.421662
  C      -1.948120      1.023060     -1.149209
  O      -2.435379      2.144887     -1.184995
  C      -0.553930      0.635794     -0.826353
  C      -0.451089     -0.736934     -0.923041
  C      -1.776285     -1.276519     -1.311568
  O      -2.095256     -2.441411     -1.510385
  C       0.747331     -1.441369     -0.680619
  N       0.767846     -2.787377     -0.799715
  C       1.875724     -0.633033     -0.314845
  C       1.768751      0.794157     -0.214022
  C       0.529298      1.469421     -0.475279
  N       0.349047      2.806833     -0.405093
  C       2.942515      1.605984      0.164372
  O       2.887088      2.843127      0.259308
  C       4.228314      0.916805      0.439924
  C       4.333023     -0.480014      0.341236
  C       3.160792     -1.306758     -0.041623
  O       3.290254     -2.539417     -0.121637
  C       5.558337     -1.107721      0.606447
  C       6.667176     -0.348005      0.966615
  C       6.562687      1.046451      1.064955
  C       5.349725      1.676050      0.802902
  H      -5.705973     -1.205117      1.998178
  H      -6.017498      0.478012      2.452974
  H      -7.018003     -0.306691      1.220169
  H      -5.316751      1.252312      0.171142
  H      -4.021579      0.363231      0.952339
  H      -4.656692     -1.707419     -0.342287
  H      -5.972278     -0.821930     -1.103868
  H      -4.314385      0.742176     -2.166353
  H      -4.103370     -0.955000     -2.649770
  H      -0.086642     -3.258587     -1.067653
  H       1.638601     -3.271325     -0.620552
  H      -0.569066      3.178929     -0.611462
  H       1.139932      3.384640     -0.149933
  H       5.613379     -2.187901      0.523029
  H       7.615579     -0.837433      1.171743
  H       7.430112      1.637665      1.346221
  H       5.242985      2.753382      0.871714
