44
18506 RDKit ETKDGv3(seed=42)+UFF
C     -5.70369084    -0.14581181     1.65021719
C     -4.81271098     0.29207747     0.49169351
C     -4.84409460    -0.73418162    -0.64865846
C     -4.02934052    -0.27446896    -1.86469713
N     -2.60195269    -0.18040677    -1.54462809
C     -1.90806166     0.93761760    -1.23700931
O     -2.41832888     2.08952692    -1.20785727
C     -0.58944944     0.62447876    -0.93391090
C     -0.47771238    -0.73791206    -1.04718344
C     -1.73234513    -1.20615735    -1.41509018
O     -2.04903781    -2.41394564    -1.58536284
C      0.70061992    -1.41595778    -0.72561501
N      0.71224155    -2.84993359    -0.74979039
C      1.84316675    -0.64299055    -0.33281053
C      1.72544044     0.79044814    -0.21313749
C      0.46761648     1.42209098    -0.48892450
N      0.24644393     2.82315162    -0.27656373
C      2.87678160     1.54943308     0.13396663
O      2.83169285     2.81010371     0.15785047
C      4.09783055     0.91608988     0.42779107
C      4.21303963    -0.48636563     0.31061327
C      3.10690646    -1.25202396    -0.10006635
O      3.26707092    -2.48978404    -0.28496611
C      5.45361589    -1.10186719     0.58910309
C      6.55453936    -0.33995874     0.98067897
C      6.44095848     1.04269152     1.09619874
C      5.22590456     1.67007981     0.82070106
H     -5.35984505    -1.12228247     2.05322708
H     -5.65598331     0.61019269     2.46211120
H     -6.75809242    -0.23837779     1.31303486
H     -5.16474470     1.27896135     0.11999396
H     -3.77389764     0.40595645     0.86918844
H     -4.45284823    -1.70991063    -0.28667077
H     -5.89646595    -0.88771147    -0.97343112
H     -4.40981535     0.70513859    -2.22811260
H     -4.17044697    -1.00537409    -2.69020821
H      0.20872345    -3.37944992    -1.49413773
H      1.09125406    -3.39362916     0.05650884
H     -0.34562185     3.37946137    -0.93074629
H      0.54271156     3.28067732     0.61352592
H      5.57781748    -2.17480019     0.50783211
H      7.49916970    -0.82379485     1.19349734
H      7.29747815     1.63144088     1.39863133
H      5.17346261     2.74747812     0.91908158
