30
Generated from SMILES: CC[N-]c1nc(N[N+]#N)nc(n1)NC(C)C
C      4.182168    -1.373695     1.003612
C      3.083236    -1.375679     2.060224
N      1.767240    -1.435276     1.432956
C      1.145335    -0.325864     0.778427
N      1.746052     0.892544     0.754154
C      1.145581     1.939117     0.132741
N      1.786974     3.215734     0.109936
N      1.205186     4.275852    -0.505287
N      0.725163     5.151282    -1.013112
N     -0.062574     1.764888    -0.463910
C     -0.670782     0.551186    -0.439663
N     -0.061578    -0.492553     0.182506
N     -1.944643     0.382604    -1.075647
C     -2.674512    -0.889657    -1.060033
C     -3.730245    -0.909887    -2.170123
C     -3.332820    -1.101095     0.306615
H      5.175391    -1.375574     1.499916
H      4.106779    -0.468994     0.364817
H      4.098844    -2.278989     0.365481
H      3.161556    -0.469368     2.698631
H      3.209764    -2.268869     2.707512
H      2.715771     3.339640     0.570819
H     -2.348327     1.201730    -1.585508
H     -1.965438    -1.724661    -1.254337
H     -4.479666    -0.104399    -2.013247
H     -4.252457    -1.890376    -2.185901
H     -3.242646    -0.758265    -3.156617
H     -4.039751    -0.273062     0.528636
H     -3.887014    -2.063799     0.321234
H     -2.562587    -1.134513     1.105165
