38
Coordinates from ORCA-job /home/tchapet/Post-Doc/ARTICLES-DOSSIERS-DES-ARTICLES-EN-REDACTION/NOUVELS-AXES-DE-RECHERCHE-A-REGARDER-URGEMMENT/ARTICLES-EN-REDACTIONS/ARTICLE_MVOTO/Paper2_JCIM/solvatochromic_tddft/opt_gap_geometries/5081/5081_opt E -1133.475493884076
  C       5.488577     -2.025217      1.168482
  C       4.792686     -2.779497      0.041335
  O       3.376475     -2.644362      0.144352
  C       2.683922     -1.481443     -0.212576
  O       3.303872     -0.496885     -0.696008
  C       1.226400     -1.430741     -0.000556
  N       0.558421     -2.424750      0.621891
  C      -0.721740     -2.002071      0.667040
  N      -0.885638     -0.784151      0.111099
  C       0.328110     -0.423531     -0.335596
  C       0.574090      0.890672     -1.001385
  N       0.347918      1.950458     -0.020132
  C       1.472219      2.767920      0.447295
  C      -0.973130      2.193288      0.513277
  O      -1.144785      3.163722      1.302269
  C      -2.160954      1.369701      0.141707
  C      -2.114850     -0.043797     -0.014080
  C      -3.302112     -0.743098     -0.291448
  C      -4.516820     -0.071448     -0.419063
  C      -4.573059      1.320806     -0.265002
  C      -3.400552      2.026734      0.018714
  N      -5.804867      2.045380     -0.386825
  N      -6.875482      1.488255     -0.634296
  N      -7.945210      0.933528     -0.881335
  H       6.585057     -2.188175      1.105274
  H       5.125810     -2.393876      2.151224
  H       5.285244     -0.936882      1.090300
  H       5.051442     -3.856363      0.120472
  H       5.146705     -2.411640     -0.946278
  H      -1.519580     -2.574982      1.121720
  H       1.583975      0.951769     -1.446578
  H      -0.136825      1.012519     -1.846752
  H       2.432766      2.446194     -0.007412
  H       1.297669      3.831749      0.181270
  H       1.567871      2.676668      1.549934
  H      -3.284814     -1.817145     -0.425580
  H      -5.410147     -0.641648     -0.639042
  H      -3.458666      3.102338      0.139823
38
Coordinates from ORCA-job /home/tchapet/Post-Doc/ARTICLES-DOSSIERS-DES-ARTICLES-EN-REDACTION/NOUVELS-AXES-DE-RECHERCHE-A-REGARDER-URGEMMENT/ARTICLES-EN-REDACTIONS/ARTICLE_MVOTO/Paper2_JCIM/solvatochromic_tddft/opt_gap_geometries/5081/5081_opt E -1133.513792352140
  C       5.423786     -1.997257      1.152280
  C       4.708109     -2.745002      0.029715
  O       3.292423     -2.642493      0.148583
  C       2.675072     -1.489273     -0.212795
  O       3.298837     -0.539187     -0.693596
  C       1.227283     -1.450452      0.007349
  N       0.543734     -2.458678      0.642572
  C      -0.713151     -2.046154      0.691854
  N      -0.867353     -0.811444      0.115630
  C       0.354740     -0.429164     -0.337202
  C       0.565936      0.895874     -0.990301
  N       0.328676      1.965255     -0.015617
  C       1.425018      2.804053      0.458443
  C      -0.939036      2.198686      0.504707
  O      -1.116861      3.154722      1.270007
  C      -2.111204      1.343371      0.129740
  C      -2.078322     -0.067651     -0.018259
  C      -3.260494     -0.768295     -0.292175
  C      -4.469916     -0.096717     -0.421108
  C      -4.511701      1.296515     -0.271734
  C      -3.341111      2.000372      0.006791
  N      -5.714340      2.041274     -0.389996
  N      -6.774443      1.481578     -0.632153
  N      -7.788463      0.981286     -0.859780
  H       6.509200     -2.152550      1.070974
  H       5.087332     -2.369634      2.129316
  H       5.219217     -0.921654      1.090444
  H       4.949750     -3.813446      0.083871
  H       5.030961     -2.368005     -0.951883
  H      -1.516037     -2.606356      1.149878
  H       1.568031      0.967742     -1.413476
  H      -0.136569      1.008544     -1.835025
  H       2.369401      2.480221      0.009687
  H       1.244528      3.854461      0.190835
  H       1.515818      2.729869      1.550417
  H      -3.239364     -1.845222     -0.420785
  H      -5.370667     -0.661537     -0.639221
  H      -3.388819      3.076347      0.129546
38
Coordinates from ORCA-job /home/tchapet/Post-Doc/ARTICLES-DOSSIERS-DES-ARTICLES-EN-REDACTION/NOUVELS-AXES-DE-RECHERCHE-A-REGARDER-URGEMMENT/ARTICLES-EN-REDACTIONS/ARTICLE_MVOTO/Paper2_JCIM/solvatochromic_tddft/opt_gap_geometries/5081/5081_opt E -1133.519373072067
  C       5.424948     -2.022423      1.142791
  C       4.676647     -2.728380      0.013850
  O       3.255061     -2.632172      0.159849
  C       2.683247     -1.481570     -0.213465
  O       3.297990     -0.554305     -0.723634
  C       1.236496     -1.453305      0.029685
  N       0.544607     -2.458954      0.681604
  C      -0.698044     -2.051880      0.726942
  N      -0.858635     -0.817396      0.124957
  C       0.376907     -0.426908     -0.322166
  C       0.559841      0.901562     -0.971069
  N       0.306215      1.983446     -0.012069
  C       1.393550      2.831635      0.466564
  C      -0.936042      2.222299      0.493909
  O      -1.136494      3.172479      1.248130
  C      -2.093853      1.333036      0.106541
  C      -2.062912     -0.075605     -0.027714
  C      -3.242683     -0.780544     -0.297246
  C      -4.454848     -0.115243     -0.426743
  C      -4.495486      1.279551     -0.287514
  C      -3.323790      1.984933     -0.016448
  N      -5.681117      2.040525     -0.404640
  N      -6.745494      1.468248     -0.639908
  N      -7.756656      1.005467     -0.854982
  H       6.502061     -2.192471      1.037153
  H       5.106006     -2.412996      2.114535
  H       5.240170     -0.946349      1.114751
  H       4.886023     -3.800350      0.027884
  H       4.972552     -2.326444     -0.960200
  H      -1.508072     -2.593380      1.194430
  H       1.571881      0.980780     -1.359317
  H      -0.126157      1.002050     -1.824892
  H       2.331897      2.484576      0.032416
  H       1.223482      3.875000      0.182577
  H       1.467208      2.784797      1.556994
  H      -3.211628     -1.858291     -0.421494
  H      -5.357048     -0.680910     -0.641718
  H      -3.367831      3.059491      0.117191
38
Coordinates from ORCA-job /home/tchapet/Post-Doc/ARTICLES-DOSSIERS-DES-ARTICLES-EN-REDACTION/NOUVELS-AXES-DE-RECHERCHE-A-REGARDER-URGEMMENT/ARTICLES-EN-REDACTIONS/ARTICLE_MVOTO/Paper2_JCIM/solvatochromic_tddft/opt_gap_geometries/5081/5081_opt E -1133.520388827574
  C       5.436449     -2.028840      1.147245
  C       4.684693     -2.724620      0.016742
  O       3.256783     -2.627195      0.172473
  C       2.685880     -1.484230     -0.231315
  O       3.296938     -0.552112     -0.735445
  C       1.237302     -1.458726      0.028085
  N       0.541603     -2.464602      0.679159
  C      -0.697630     -2.056177      0.724862
  N      -0.860806     -0.818315      0.123321
  C       0.382218     -0.429161     -0.322395
  C       0.556642      0.901813     -0.968484
  N       0.300296      1.987433     -0.014049
  C       1.392962      2.833014      0.464925
  C      -0.939914      2.231487      0.494669
  O      -1.152004      3.187031      1.238844
  C      -2.094656      1.330542      0.100561
  C      -2.063492     -0.076334     -0.032176
  C      -3.243649     -0.781447     -0.301226
  C      -4.457812     -0.118933     -0.427594
  C      -4.499938      1.276207     -0.289147
  C      -3.326200      1.980724     -0.019443
  N      -5.680329      2.046353     -0.402819
  N      -6.746938      1.466505     -0.633184
  N      -7.775353      1.019890     -0.844000
  H       6.511892     -2.206784      1.039404
  H       5.117714     -2.419645      2.118709
  H       5.260929     -0.950780      1.123271
  H       4.880634     -3.799183      0.021740
  H       4.970756     -2.314810     -0.955445
  H      -1.514007     -2.587301      1.194341
  H       1.576233      0.982320     -1.337428
  H      -0.120696      1.001464     -1.827702
  H       2.329207      2.466231      0.043106
  H       1.236463      3.874390      0.167063
  H       1.453196      2.803572      1.556470
  H      -3.206992     -1.858750     -0.429056
  H      -5.359982     -0.684842     -0.642597
  H      -3.368390      3.053810      0.126052
38
Coordinates from ORCA-job /home/tchapet/Post-Doc/ARTICLES-DOSSIERS-DES-ARTICLES-EN-REDACTION/NOUVELS-AXES-DE-RECHERCHE-A-REGARDER-URGEMMENT/ARTICLES-EN-REDACTIONS/ARTICLE_MVOTO/Paper2_JCIM/solvatochromic_tddft/opt_gap_geometries/5081/5081_opt E -1133.520153130339
  C       5.516442     -2.121100      1.091782
  C       4.683570     -2.742445     -0.021172
  O       3.263779     -2.604396      0.229592
  C       2.699658     -1.441353     -0.140403
  O       3.291053     -0.540408     -0.719853
  C       1.244193     -1.427623      0.109190
  N       0.543630     -2.430718      0.758321
  C      -0.697266     -2.027963      0.781475
  N      -0.863102     -0.795268      0.166859
  C       0.389935     -0.407979     -0.267901
  C       0.557698      0.916002     -0.931247
  N       0.279429      2.016830     -0.001148
  C       1.367321      2.873183      0.479666
  C      -0.971410      2.269870      0.486417
  O      -1.203477      3.231253      1.217503
  C      -2.113199      1.342230      0.093317
  C      -2.068020     -0.064717     -0.016592
  C      -3.239967     -0.782977     -0.290969
  C      -4.459144     -0.135027     -0.442704
  C      -4.516832      1.261734     -0.326456
  C      -3.350366      1.978655     -0.051595
  N      -5.698842      2.029503     -0.466304
  N      -6.759464      1.430691     -0.697611
  N      -7.797405      0.997118     -0.911419
  H       6.577967     -2.332357      0.917254
  H       5.237861     -2.539138      2.064897
  H       5.381037     -1.036072      1.119042
  H       4.833165     -3.823968     -0.074003
  H       4.918875     -2.294640     -0.989868
  H      -1.524473     -2.547262      1.246504
  H       1.589063      0.998883     -1.269893
  H      -0.101268      0.997052     -1.805748
  H       2.312105      2.480738      0.100453
  H       1.228399      3.904930      0.139292
  H       1.390014      2.886969      1.573552
  H      -3.187321     -1.861169     -0.404772
  H      -5.353274     -0.711865     -0.661589
  H      -3.400364      3.052803      0.083668
38
Coordinates from ORCA-job /home/tchapet/Post-Doc/ARTICLES-DOSSIERS-DES-ARTICLES-EN-REDACTION/NOUVELS-AXES-DE-RECHERCHE-A-REGARDER-URGEMMENT/ARTICLES-EN-REDACTIONS/ARTICLE_MVOTO/Paper2_JCIM/solvatochromic_tddft/opt_gap_geometries/5081/5081_opt E -1133.520778748930
  C       5.477791     -2.072025      1.132239
  C       4.698499     -2.726878      0.000374
  O       3.268956     -2.615256      0.202684
  C       2.690757     -1.471278     -0.204423
  O       3.292240     -0.545767     -0.733042
  C       1.238284     -1.451395      0.058280
  N       0.540354     -2.456204      0.704930
  C      -0.699608     -2.048160      0.741993
  N      -0.864453     -0.808772      0.143476
  C       0.385339     -0.423518     -0.298728
  C       0.554436      0.905131     -0.953175
  N       0.290317      1.997924     -0.010009
  C       1.385527      2.847677      0.465446
  C      -0.955684      2.251528      0.490761
  O      -1.174299      3.209834      1.229489
  C      -2.106293      1.334925      0.101632
  C      -2.067918     -0.071493     -0.022200
  C      -3.245557     -0.781487     -0.294898
  C      -4.462284     -0.126204     -0.432967
  C      -4.512990      1.269497     -0.303077
  C      -3.341490      1.978476     -0.029612
  N      -5.694109      2.042780     -0.428420
  N      -6.758870      1.451960     -0.657871
  N      -7.797600      1.030119     -0.867729
  H       6.549989     -2.259134      0.996781
  H       5.175813     -2.484413      2.101071
  H       5.315227     -0.990078      1.140182
  H       4.874917     -3.805302     -0.033098
  H       4.955880     -2.285072     -0.966064
  H      -1.525717     -2.568543      1.207603
  H       1.581745      0.986183     -1.305094
  H      -0.114855      0.996371     -1.819282
  H       2.327516      2.452157      0.081744
  H       1.249954      3.880791      0.126288
  H       1.412950      2.859186      1.559551
  H      -3.199200     -1.858785     -0.418471
  H      -5.360500     -0.696927     -0.650732
  H      -3.385065      3.052152      0.111904
38
Coordinates from ORCA-job /home/tchapet/Post-Doc/ARTICLES-DOSSIERS-DES-ARTICLES-EN-REDACTION/NOUVELS-AXES-DE-RECHERCHE-A-REGARDER-URGEMMENT/ARTICLES-EN-REDACTIONS/ARTICLE_MVOTO/Paper2_JCIM/solvatochromic_tddft/opt_gap_geometries/5081/5081_opt E -1133.520821824643
  C       5.471956     -2.076459      1.137110
  C       4.697847     -2.723912     -0.002755
  O       3.268814     -2.616104      0.197206
  C       2.689789     -1.473040     -0.206487
  O       3.292074     -0.547761     -0.734360
  C       1.238763     -1.452256      0.055247
  N       0.542478     -2.457755      0.701465
  C      -0.697412     -2.048779      0.742922
  N      -0.862097     -0.810050      0.144719
  C       0.385586     -0.423234     -0.297977
  C       0.554547      0.905604     -0.952513
  N       0.291117      1.996750     -0.007258
  C       1.383718      2.851501      0.462674
  C      -0.953471      2.245971      0.496298
  O      -1.174323      3.215774      1.218691
  C      -2.104215      1.333600      0.104717
  C      -2.065888     -0.073144     -0.020020
  C      -3.243662     -0.782480     -0.293683
  C      -4.459609     -0.126209     -0.432062
  C      -4.509828      1.269321     -0.301014
  C      -3.338677      1.977935     -0.027250
  N      -5.691535      2.040987     -0.426464
  N      -6.756174      1.450815     -0.656643
  N      -7.796051      1.031156     -0.867185
  H       6.545415     -2.256257      1.003097
  H       5.169370     -2.499296      2.100950
  H       5.303553     -0.995869      1.154776
  H       4.878041     -3.800980     -0.045500
  H       4.956607     -2.272835     -0.964403
  H      -1.522607     -2.569698      1.209228
  H       1.579105      0.987667     -1.310658
  H      -0.118387      0.996105     -1.816108
  H       2.327740      2.452828      0.088173
  H       1.250009      3.880585      0.111063
  H       1.405650      2.874073      1.556332
  H      -3.198351     -1.859830     -0.417278
  H      -5.358017     -0.696577     -0.650379
  H      -3.381877      3.051854      0.112864
38
Coordinates from ORCA-job /home/tchapet/Post-Doc/ARTICLES-DOSSIERS-DES-ARTICLES-EN-REDACTION/NOUVELS-AXES-DE-RECHERCHE-A-REGARDER-URGEMMENT/ARTICLES-EN-REDACTIONS/ARTICLE_MVOTO/Paper2_JCIM/solvatochromic_tddft/opt_gap_geometries/5081/5081_opt E -1133.520885314771
  C       5.467173     -2.084531      1.144837
  C       4.697903     -2.720815     -0.004495
  O       3.269064     -2.614629      0.194678
  C       2.689437     -1.473415     -0.209717
  O       3.292754     -0.548569     -0.737306
  C       1.239407     -1.451406      0.050065
  N       0.543781     -2.456621      0.696139
  C      -0.695827     -2.046311      0.740105
  N      -0.859214     -0.807697      0.142674
  C       0.387088     -0.420779     -0.300716
  C       0.557569      0.907911     -0.955400
  N       0.292493      1.997363     -0.008848
  C       1.382995      2.853910      0.460712
  C      -0.953764      2.249175      0.487985
  O      -1.170830      3.213304      1.218940
  C      -2.103647      1.335658      0.101636
  C      -2.063305     -0.071644     -0.022310
  C      -3.240810     -0.782371     -0.293742
  C      -4.457531     -0.127584     -0.429708
  C      -4.509635      1.267700     -0.297932
  C      -3.339278      1.978028     -0.027248
  N      -5.693370      2.036111     -0.420577
  N      -6.757695      1.444124     -0.647980
  N      -7.800562      1.029081     -0.855769
  H       6.541827     -2.257248      1.012234
  H       5.163664     -2.519632      2.102658
  H       5.293663     -1.005213      1.174614
  H       4.879470     -3.796780     -0.059392
  H       4.957573     -2.258033     -0.960029
  H      -1.521539     -2.565921      1.206740
  H       1.581033      0.990310     -1.315410
  H      -0.115863      0.997678     -1.818879
  H       2.330699      2.440363      0.113119
  H       1.264789      3.875867      0.083560
  H       1.384018      2.899677      1.553389
  H      -3.194667     -1.859836     -0.416301
  H      -5.355652     -0.699389     -0.645856
  H      -3.383213      3.052165      0.111067
38
Coordinates from ORCA-job /home/tchapet/Post-Doc/ARTICLES-DOSSIERS-DES-ARTICLES-EN-REDACTION/NOUVELS-AXES-DE-RECHERCHE-A-REGARDER-URGEMMENT/ARTICLES-EN-REDACTIONS/ARTICLE_MVOTO/Paper2_JCIM/solvatochromic_tddft/opt_gap_geometries/5081/5081_opt E -1133.520950446519
  C       5.472752     -2.100759      1.146966
  C       4.700528     -2.719600     -0.009453
  O       3.272060     -2.609790      0.197872
  C       2.691085     -1.469480     -0.208189
  O       3.292925     -0.544182     -0.737692
  C       1.240759     -1.448804      0.050469
  N       0.545605     -2.454379      0.695901
  C      -0.694390     -2.045021      0.739273
  N      -0.857455     -0.804444      0.145684
  C       0.388532     -0.417402     -0.298766
  C       0.558122      0.911450     -0.953238
  N       0.290687      1.999442     -0.005879
  C       1.380528      2.859129      0.459482
  C      -0.958054      2.254857      0.484794
  O      -1.177407      3.222051      1.211721
  C      -2.105822      1.337463      0.102087
  C      -2.062388     -0.070047     -0.020095
  C      -3.238836     -0.782929     -0.291398
  C      -4.456723     -0.130733     -0.428125
  C      -4.511932      1.264615     -0.297761
  C      -3.342801      1.977165     -0.027874
  N      -5.696961      2.030912     -0.421211
  N      -6.760896      1.436419     -0.647184
  N      -7.807466      1.031717     -0.853382
  H       6.547471     -2.270209      1.010285
  H       5.171340     -2.549011      2.099421
  H       5.298594     -1.021772      1.192111
  H       4.877358     -3.795544     -0.080458
  H       4.957170     -2.243120     -0.958745
  H      -1.521530     -2.562920      1.205327
  H       1.582046      0.995274     -1.312067
  H      -0.114419      0.999960     -1.817601
  H       2.331423      2.418151      0.156130
  H       1.290362      3.867483      0.039117
  H       1.349069      2.947488      1.548702
  H      -3.190014     -1.860312     -0.413667
  H      -5.353566     -0.704511     -0.644379
  H      -3.387757      3.051392      0.109357
38
Coordinates from ORCA-job /home/tchapet/Post-Doc/ARTICLES-DOSSIERS-DES-ARTICLES-EN-REDACTION/NOUVELS-AXES-DE-RECHERCHE-A-REGARDER-URGEMMENT/ARTICLES-EN-REDACTIONS/ARTICLE_MVOTO/Paper2_JCIM/solvatochromic_tddft/opt_gap_geometries/5081/5081_opt E -1133.521056883352
  C       5.479157     -2.131958      1.152279
  C       4.705071     -2.716363     -0.020517
  O       3.277320     -2.601980      0.195130
  C       2.695073     -1.461396     -0.209110
  O       3.294974     -0.533583     -0.737719
  C       1.244371     -1.442858      0.048597
  N       0.550142     -2.450699      0.691340
  C      -0.689784     -2.041538      0.738866
  N      -0.853630     -0.798540      0.149665
  C       0.391171     -0.410337     -0.296568
  C       0.558936      0.919605     -0.948518
  N       0.287430      2.002781      0.002703
  C       1.376711      2.868134      0.457826
  C      -0.966080      2.264819      0.479877
  O      -1.192257      3.240953      1.193711
  C      -2.109441      1.340542      0.102558
  C      -2.060514     -0.067297     -0.016894
  C      -3.234975     -0.784455     -0.286750
  C      -4.455223     -0.137044     -0.424001
  C      -4.515990      1.258471     -0.296281
  C      -3.349024      1.975308     -0.028623
  N      -5.703528      2.020025     -0.420408
  N      -6.767204      1.422392     -0.643556
  N      -7.819594      1.033198     -0.846833
  H       6.554448     -2.294523      1.011514
  H       5.178302     -2.606495      2.092163
  H       5.302995     -1.054533      1.227469
  H       4.874801     -3.791237     -0.121852
  H       4.961812     -2.214199     -0.956225
  H      -1.517308     -2.557933      1.205856
  H       1.583404      1.007111     -1.305679
  H      -0.111887      1.007782     -1.814408
  H       2.327800      2.368301      0.263641
  H       1.358456      3.835814     -0.058906
  H       1.272113      3.058333      1.528350
  H      -3.181937     -1.861673     -0.408436
  H      -5.349828     -0.714541     -0.639654
  H      -3.396282      3.049609      0.106926
38
Coordinates from ORCA-job /home/tchapet/Post-Doc/ARTICLES-DOSSIERS-DES-ARTICLES-EN-REDACTION/NOUVELS-AXES-DE-RECHERCHE-A-REGARDER-URGEMMENT/ARTICLES-EN-REDACTIONS/ARTICLE_MVOTO/Paper2_JCIM/solvatochromic_tddft/opt_gap_geometries/5081/5081_opt E -1133.521193506840
  C       5.482366     -2.162335      1.157035
  C       4.708994     -2.711670     -0.033293
  O       3.281853     -2.594899      0.184869
  C       2.699682     -1.451426     -0.211885
  O       3.298211     -0.519220     -0.734738
  C       1.248432     -1.435894      0.045424
  N       0.556019     -2.445916      0.687591
  C      -0.684559     -2.039552      0.736479
  N      -0.850275     -0.793321      0.153019
  C       0.393083     -0.403050     -0.294813
  C       0.558080      0.929339     -0.941444
  N       0.283803      2.005388      0.016531
  C       1.375676      2.875095      0.454413
  C      -0.974489      2.274607      0.479539
  O      -1.210606      3.260656      1.177078
  C      -2.113091      1.342909      0.106023
  C      -2.059158     -0.064943     -0.012740
  C      -3.231300     -0.786257     -0.282072
  C      -4.453977     -0.143474     -0.419499
  C      -4.520040      1.252097     -0.293039
  C      -3.355261      1.972918     -0.026209
  N      -5.709634      2.009044     -0.417870
  N      -6.772979      1.409790     -0.640441
  N      -7.828857      1.030461     -0.842980
  H       6.558230     -2.319310      1.014705
  H       5.179200     -2.662764      2.082699
  H       5.305013     -1.087249      1.262032
  H       4.873354     -3.784434     -0.163907
  H       4.970373     -2.185152     -0.954195
  H      -1.510731     -2.557575      1.204011
  H       1.583189      1.021814     -1.296608
  H      -0.110856      1.020190     -1.808578
  H       2.312219      2.314155      0.405958
  H       1.456257      3.772070     -0.174087
  H       1.187912      3.198326      1.479419
  H      -3.174573     -1.863181     -0.404334
  H      -5.346351     -0.724350     -0.635314
  H      -3.405208      3.047109      0.108755
38
Coordinates from ORCA-job /home/tchapet/Post-Doc/ARTICLES-DOSSIERS-DES-ARTICLES-EN-REDACTION/NOUVELS-AXES-DE-RECHERCHE-A-REGARDER-URGEMMENT/ARTICLES-EN-REDACTIONS/ARTICLE_MVOTO/Paper2_JCIM/solvatochromic_tddft/opt_gap_geometries/5081/5081_opt E -1133.521358552825
  C       5.482621     -2.187764      1.158059
  C       4.711283     -2.706536     -0.047791
  O       3.284593     -2.589561      0.166762
  C       2.704639     -1.439182     -0.214598
  O       3.303223     -0.500132     -0.724258
  C       1.252564     -1.427113      0.043319
  N       0.561288     -2.441822      0.681302
  C      -0.679336     -2.037515      0.734009
  N      -0.848444     -0.788809      0.154632
  C       0.394090     -0.395336     -0.292725
  C       0.555945      0.941232     -0.930576
  N       0.279337      2.008331      0.036435
  C       1.379660      2.876785      0.450332
  C      -0.983897      2.284537      0.485563
  O      -1.234836      3.278386      1.166737
  C      -2.117029      1.344628      0.111437
  C      -2.059039     -0.062748     -0.009383
  C      -3.228628     -0.787853     -0.279337
  C      -4.453789     -0.149422     -0.416311
  C      -4.524533      1.245992     -0.289149
  C      -3.361820      1.970181     -0.021260
  N      -5.715725      1.999110     -0.413746
  N      -6.778395      1.399590     -0.637808
  N      -7.833694      1.019235     -0.841669
  H       6.558581     -2.343470      1.015655
  H       5.174620     -2.708972      2.070665
  H       5.306975     -1.114864      1.287906
  H       4.872806     -3.776871     -0.201952
  H       4.980984     -2.161059     -0.955417
  H      -1.502224     -2.560612      1.201709
  H       1.582982      1.039912     -1.280248
  H      -0.108903      1.038621     -1.800063
  H       2.275290      2.264815      0.593946
  H       1.592964      3.654115     -0.296791
  H       1.104024      3.367698      1.383148
  H      -3.168965     -1.864360     -0.403360
  H      -5.344121     -0.733090     -0.632885
  H      -3.415089      3.043927      0.115246
38
Coordinates from ORCA-job /home/tchapet/Post-Doc/ARTICLES-DOSSIERS-DES-ARTICLES-EN-REDACTION/NOUVELS-AXES-DE-RECHERCHE-A-REGARDER-URGEMMENT/ARTICLES-EN-REDACTIONS/ARTICLE_MVOTO/Paper2_JCIM/solvatochromic_tddft/opt_gap_geometries/5081/5081_opt E -1133.521507356924
  C       5.478624     -2.166505      1.148854
  C       4.706737     -2.709675     -0.046368
  O       3.280114     -2.595603      0.159936
  C       2.703015     -1.441478     -0.215300
  O       3.303563     -0.502316     -0.720544
  C       1.250991     -1.428357      0.045302
  N       0.559311     -2.443242      0.683973
  C      -0.681740     -2.040480      0.733043
  N      -0.851826     -0.792547      0.152102
  C       0.391945     -0.397899     -0.291706
  C       0.553693      0.940775     -0.925451
  N       0.278743      2.007873      0.042905
  C       1.386310      2.868456      0.451494
  C      -0.982205      2.279752      0.500011
  O      -1.236230      3.266784      1.188571
  C      -2.116221      1.342250      0.116562
  C      -2.061326     -0.064327     -0.010340
  C      -3.231192     -0.786974     -0.284352
  C      -4.455368     -0.146134     -0.420982
  C      -4.523305      1.248868     -0.288820
  C      -3.359927      1.970303     -0.015556
  N      -5.712833      2.004934     -0.412953
  N      -6.774803      1.408616     -0.643100
  N      -7.822561      1.009442     -0.852902
  H       6.553469     -2.330699      1.007812
  H       5.169337     -2.668431      2.071797
  H       5.307643     -1.090767      1.257263
  H       4.873452     -3.782191     -0.178026
  H       4.978910     -2.183429     -0.964975
  H      -1.502394     -2.568716      1.198976
  H       1.582045      1.040147     -1.271419
  H      -0.109212      1.042521     -1.795719
  H       2.272916      2.249102      0.620230
  H       1.618070      3.620734     -0.314496
  H       1.105874      3.386331      1.368587
  H      -3.173882     -1.863224     -0.411573
  H      -5.346529     -0.727363     -0.640514
  H      -3.413206      3.043466      0.125213
38
Coordinates from ORCA-job /home/tchapet/Post-Doc/ARTICLES-DOSSIERS-DES-ARTICLES-EN-REDACTION/NOUVELS-AXES-DE-RECHERCHE-A-REGARDER-URGEMMENT/ARTICLES-EN-REDACTIONS/ARTICLE_MVOTO/Paper2_JCIM/solvatochromic_tddft/opt_gap_geometries/5081/5081_opt E -1133.521581042414
  C       5.472289     -2.135862      1.138608
  C       4.701955     -2.710926     -0.042480
  O       3.275080     -2.602449      0.159131
  C       2.698890     -1.447408     -0.213068
  O       3.302845     -0.507533     -0.711830
  C       1.247295     -1.433558      0.045451
  N       0.554211     -2.450461      0.678541
  C      -0.686418     -2.045746      0.728199
  N      -0.855225     -0.798584      0.147547
  C       0.389475     -0.403265     -0.292808
  C       0.552864      0.936634     -0.924581
  N       0.279840      2.004396      0.044660
  C       1.392641      2.857001      0.454429
  C      -0.976544      2.270533      0.512489
  O      -1.226293      3.246758      1.216321
  C      -2.113573      1.338785      0.121321
  C      -2.062872     -0.067213     -0.012461
  C      -3.234152     -0.785540     -0.291094
  C      -4.456290     -0.140633     -0.426148
  C      -4.519887      1.253637     -0.287062
  C      -3.355289      1.970800     -0.008797
  N      -5.707894      2.013607     -0.408936
  N      -6.768951      1.419447     -0.644161
  N      -7.810349      1.005057     -0.858807
  H       6.546717     -2.304522      0.999727
  H       5.164395     -2.615565      2.073604
  H       5.301693     -1.058209      1.220963
  H       4.876920     -3.784605     -0.148782
  H       4.970961     -2.204987     -0.973354
  H      -1.507170     -2.576818      1.190733
  H       1.581332      1.035192     -1.269414
  H      -0.110006      1.040705     -1.794502
  H       2.268380      2.232839      0.657146
  H       1.648188      3.581815     -0.329973
  H       1.101110      3.402998      1.351423
  H      -3.179974     -1.861578     -0.421870
  H      -5.349089     -0.718279     -0.648551
  H      -3.407105      3.043542      0.135919
38
Coordinates from ORCA-job /home/tchapet/Post-Doc/ARTICLES-DOSSIERS-DES-ARTICLES-EN-REDACTION/NOUVELS-AXES-DE-RECHERCHE-A-REGARDER-URGEMMENT/ARTICLES-EN-REDACTIONS/ARTICLE_MVOTO/Paper2_JCIM/solvatochromic_tddft/opt_gap_geometries/5081/5081_opt E -1133.521610657829
  C       5.470490     -2.116228      1.131912
  C       4.700683     -2.711214     -0.039352
  O       3.272837     -2.605664      0.161221
  C       2.695813     -1.451870     -0.213182
  O       3.300439     -0.513170     -0.713598
  C       1.244486     -1.437464      0.044427
  N       0.551298     -2.453775      0.677208
  C      -0.689814     -2.049277      0.724155
  N      -0.857395     -0.802207      0.144747
  C       0.388106     -0.405840     -0.292880
  C       0.552109      0.934438     -0.924366
  N       0.280214      2.002725      0.044765
  C       1.397139      2.849149      0.456467
  C      -0.973789      2.263862      0.522006
  O      -1.221237      3.231883      1.237751
  C      -2.112548      1.336312      0.125113
  C      -2.063974     -0.069172     -0.014123
  C      -3.236109     -0.784480     -0.297024
  C      -4.456980     -0.137055     -0.430659
  C      -4.518271      1.256529     -0.285294
  C      -3.353057      1.970786     -0.002774
  N      -5.705613      2.019220     -0.404782
  N      -6.765836      1.425342     -0.643998
  N      -7.804448      1.005809     -0.862051
  H       6.544846     -2.287319      0.994677
  H       5.163928     -2.581497      2.074580
  H       5.299957     -1.037682      1.197318
  H       4.879347     -3.785543     -0.129964
  H       4.965852     -2.217848     -0.978030
  H      -1.512026     -2.580388      1.184059
  H       1.580550      1.032418     -1.269202
  H      -0.111738      1.038724     -1.793440
  H       2.258554      2.220233      0.702130
  H       1.683374      3.542004     -0.346019
  H       1.090277      3.427700      1.327047
  H      -3.183028     -1.860133     -0.431584
  H      -5.350550     -0.712321     -0.656159
  H      -3.403886      3.043016      0.146430
38
Coordinates from ORCA-job /home/tchapet/Post-Doc/ARTICLES-DOSSIERS-DES-ARTICLES-EN-REDACTION/NOUVELS-AXES-DE-RECHERCHE-A-REGARDER-URGEMMENT/ARTICLES-EN-REDACTIONS/ARTICLE_MVOTO/Paper2_JCIM/solvatochromic_tddft/opt_gap_geometries/5081/5081_opt E -1133.521630657385
  C       5.471595     -2.105120      1.129211
  C       4.701665     -2.709947     -0.036559
  O       3.272541     -2.605919      0.164812
  C       2.693986     -1.454140     -0.213472
  O       3.297596     -0.516798     -0.718331
  C       1.242706     -1.439696      0.043914
  N       0.549209     -2.456808      0.673991
  C      -0.691836     -2.051517      0.721718
  N      -0.858661     -0.804242      0.143669
  C       0.387203     -0.407020     -0.293197
  C       0.550851      0.932664     -0.926509
  N       0.279643      2.003052      0.040211
  C       1.399069      2.843972      0.457361
  C      -0.972100      2.258619      0.527732
  O      -1.216969      3.219911      1.253633
  C      -2.112238      1.334613      0.127588
  C      -2.064849     -0.070550     -0.014268
  C      -3.237666     -0.783887     -0.299680
  C      -4.457638     -0.134756     -0.432895
  C      -4.517377      1.258540     -0.284644
  C      -3.351714      1.970946      0.000430
  N      -5.704082      2.023498     -0.403273
  N      -6.764179      1.429141     -0.643795
  N      -7.802760      1.010636     -0.862781
  H       6.545972     -2.277295      0.992803
  H       5.166237     -2.563205      2.075824
  H       5.301079     -1.026173      1.185982
  H       4.880955     -3.784738     -0.119400
  H       4.963127     -2.222752     -0.979427
  H      -1.515977     -2.581187      1.179872
  H       1.579047      1.029787     -1.272426
  H      -0.114668      1.034804     -1.794551
  H       2.250637      2.212032      0.729485
  H       1.705243      3.518455     -0.353073
  H       1.082264      3.440054      1.312373
  H      -3.184723     -1.859296     -0.436493
  H      -5.351589     -0.708552     -0.660532
  H      -3.401600      3.042873      0.152233
38
Coordinates from ORCA-job /home/tchapet/Post-Doc/ARTICLES-DOSSIERS-DES-ARTICLES-EN-REDACTION/NOUVELS-AXES-DE-RECHERCHE-A-REGARDER-URGEMMENT/ARTICLES-EN-REDACTIONS/ARTICLE_MVOTO/Paper2_JCIM/solvatochromic_tddft/opt_gap_geometries/5081/5081_opt E -1133.521642812725
  C       5.474596     -2.100299      1.125337
  C       4.702482     -2.708420     -0.037029
  O       3.273075     -2.603842      0.167585
  C       2.693296     -1.453876     -0.213937
  O       3.295189     -0.517714     -0.723421
  C       1.242030     -1.439439      0.044163
  N       0.549022     -2.456776      0.673892
  C      -0.692401     -2.052350      0.721155
  N      -0.859129     -0.804392      0.144792
  C       0.386517     -0.405946     -0.291930
  C       0.549047      0.933275     -0.926619
  N       0.277700      2.005375      0.037652
  C       1.400447      2.839412      0.459315
  C      -0.972519      2.255484      0.533289
  O      -1.217157      3.211184      1.266864
  C      -2.112849      1.333893      0.129991
  C      -2.065544     -0.071072     -0.013001
  C      -3.238303     -0.783814     -0.300336
  C      -4.457874     -0.134084     -0.434287
  C      -4.517303      1.259128     -0.284973
  C      -3.351813      1.971008      0.002209
  N      -5.703603      2.024917     -0.404429
  N      -6.763759      1.430282     -0.646002
  N      -7.803524      1.015560     -0.865795
  H       6.548804     -2.272585      0.987759
  H       5.171284     -2.555924      2.073824
  H       5.303979     -1.021158      1.179217
  H       4.880406     -3.783681     -0.117015
  H       4.960750     -2.223928     -0.982091
  H      -1.517722     -2.581110      1.178231
  H       1.576976      1.030453     -1.273618
  H      -0.117657      1.033065     -1.794073
  H       2.231811      2.203589      0.782150
  H       1.744734      3.476151     -0.366002
  H       1.067044      3.471429      1.281369
  H      -3.184824     -1.859063     -0.438298
  H      -5.351604     -0.707450     -0.663748
  H      -3.401606      3.042721      0.155344
38
Coordinates from ORCA-job /home/tchapet/Post-Doc/ARTICLES-DOSSIERS-DES-ARTICLES-EN-REDACTION/NOUVELS-AXES-DE-RECHERCHE-A-REGARDER-URGEMMENT/ARTICLES-EN-REDACTIONS/ARTICLE_MVOTO/Paper2_JCIM/solvatochromic_tddft/opt_gap_geometries/5081/5081_opt E -1133.521643383547
  C       5.476662     -2.098555      1.122331
  C       4.702071     -2.708951     -0.037224
  O       3.273227     -2.602852      0.169765
  C       2.693294     -1.453654     -0.213735
  O       3.294419     -0.518505     -0.725907
  C       1.242083     -1.438622      0.045690
  N       0.549200     -2.455661      0.676217
  C      -0.692255     -2.051491      0.723558
  N      -0.859278     -0.803798      0.146289
  C       0.386202     -0.405375     -0.290777
  C       0.548350      0.933165     -0.926913
  N       0.276764      2.007298      0.034937
  C       1.400107      2.837788      0.461912
  C      -0.972640      2.254485      0.534096
  O      -1.216702      3.207731      1.271140
  C      -2.113140      1.334080      0.129373
  C      -2.065928     -0.070931     -0.012506
  C      -3.238543     -0.783911     -0.299692
  C      -4.457963     -0.134054     -0.434777
  C      -4.517323      1.259342     -0.286705
  C      -3.351908      1.971416      0.000651
  N      -5.703345      2.025047     -0.407480
  N      -6.763791      1.430875     -0.649029
  N      -7.804235      1.017942     -0.868886
  H       6.550614     -2.271096      0.983200
  H       5.175014     -2.552208      2.072309
  H       5.306104     -1.019258      1.174228
  H       4.878962     -3.784611     -0.114774
  H       4.959184     -2.227157     -0.983999
  H      -1.517448     -2.579967      1.181184
  H       1.576092      1.029953     -1.274610
  H      -0.118612      1.031347     -1.794392
  H       2.228267      2.200115      0.789709
  H       1.749968      3.472315     -0.362429
  H       1.065157      3.471387      1.282391
  H      -3.185136     -1.859271     -0.436741
  H      -5.351632     -0.707540     -0.664180
  H      -3.401863      3.043185      0.153310
38
Coordinates from ORCA-job /home/tchapet/Post-Doc/ARTICLES-DOSSIERS-DES-ARTICLES-EN-REDACTION/NOUVELS-AXES-DE-RECHERCHE-A-REGARDER-URGEMMENT/ARTICLES-EN-REDACTIONS/ARTICLE_MVOTO/Paper2_JCIM/solvatochromic_tddft/opt_gap_geometries/5081/5081_opt E -1133.521648821881
  C       5.477976     -2.099144      1.120403
  C       4.701655     -2.708222     -0.038850
  O       3.273581     -2.601004      0.169668
  C       2.693661     -1.451988     -0.214362
  O       3.294165     -0.517285     -0.727737
  C       1.242570     -1.436684      0.046820
  N       0.550086     -2.454018      0.677762
  C      -0.691301     -2.050186      0.726212
  N      -0.859247     -0.802618      0.148264
  C       0.385758     -0.404253     -0.289856
  C       0.547058      0.933909     -0.926953
  N       0.275511      2.009468      0.033237
  C       1.400558      2.835355      0.464008
  C      -0.973338      2.254458      0.535012
  O      -1.217718      3.205643      1.274590
  C      -2.113728      1.334517      0.129052
  C      -2.066330     -0.070545     -0.011353
  C      -3.238565     -0.784251     -0.297992
  C      -4.458006     -0.134623     -0.434433
  C      -4.517665      1.259028     -0.288290
  C      -3.352476      1.971662     -0.000983
  N      -5.703476      2.024143     -0.410788
  N      -6.764287      1.430807     -0.652260
  N      -7.805498      1.019736     -0.872220
  H       6.551801     -2.270998      0.979679
  H       5.177493     -2.553956      2.070194
  H       5.306972     -1.019961      1.173795
  H       4.877917     -3.783965     -0.117220
  H       4.958909     -2.226262     -0.985555
  H      -1.515549     -2.579152      1.184973
  H       1.574604      1.030831     -1.275357
  H      -0.120064      1.031204     -1.794410
  H       2.220689      2.195322      0.807541
  H       1.764049      3.458212     -0.363194
  H       1.061927      3.479546      1.274619
  H      -3.185267     -1.859776     -0.433705
  H      -5.351540     -0.708505     -0.663415
  H      -3.402887      3.043556      0.150638
38
Coordinates from ORCA-job /home/tchapet/Post-Doc/ARTICLES-DOSSIERS-DES-ARTICLES-EN-REDACTION/NOUVELS-AXES-DE-RECHERCHE-A-REGARDER-URGEMMENT/ARTICLES-EN-REDACTIONS/ARTICLE_MVOTO/Paper2_JCIM/solvatochromic_tddft/opt_gap_geometries/5081/5081_opt E -1133.521647603566
  C       5.477748     -2.100495      1.120776
  C       4.701377     -2.708049     -0.039336
  O       3.273572     -2.600723      0.169193
  C       2.693714     -1.451570     -0.214653
  O       3.294311     -0.517043     -0.728093
  C       1.242777     -1.436185      0.047081
  N       0.550639     -2.453061      0.679308
  C      -0.690827     -2.049535      0.727450
  N      -0.859118     -0.802214      0.148981
  C       0.385735     -0.404135     -0.289707
  C       0.546873      0.933908     -0.927146
  N       0.275526      2.009581      0.033025
  C       1.400404      2.835440      0.464233
  C      -0.973362      2.254981      0.534204
  O      -1.217661      3.206613      1.273121
  C      -2.113755      1.334747      0.128538
  C      -2.066285     -0.070396     -0.011026
  C      -3.238430     -0.784416     -0.297135
  C      -4.457893     -0.134911     -0.434007
  C      -4.517668      1.258853     -0.288855
  C      -3.352511      1.971723     -0.001988
  N      -5.703476      2.023650     -0.411956
  N      -6.764352      1.430547     -0.653218
  N      -7.805646      1.019467     -0.873086
  H       6.551576     -2.271931      0.979675
  H       5.177306     -2.556559      2.069968
  H       5.306539     -1.021425      1.175677
  H       4.877848     -3.783642     -0.119160
  H       4.959132     -2.224886     -0.985300
  H      -1.514533     -2.578770      1.186877
  H       1.574276      1.030862     -1.275918
  H      -0.120416      1.031290     -1.794436
  H       2.223209      2.195095      0.800462
  H       1.759140      3.464383     -0.360490
  H       1.064063      3.474053      1.280190
  H      -3.185340     -1.860048     -0.432052
  H      -5.351468     -0.708935     -0.662499
  H      -3.403024      3.043735      0.148834
38
Coordinates from ORCA-job /home/tchapet/Post-Doc/ARTICLES-DOSSIERS-DES-ARTICLES-EN-REDACTION/NOUVELS-AXES-DE-RECHERCHE-A-REGARDER-URGEMMENT/ARTICLES-EN-REDACTIONS/ARTICLE_MVOTO/Paper2_JCIM/solvatochromic_tddft/opt_gap_geometries/5081/5081_opt E -1133.521646445138
  C       5.477764     -2.100996      1.120840
  C       4.701367     -2.707875     -0.039612
  O       3.273575     -2.600576      0.169016
  C       2.693694     -1.451291     -0.214566
  O       3.294373     -0.516691     -0.727785
  C       1.242803     -1.435992      0.047181
  N       0.550757     -2.452875      0.679493
  C      -0.690706     -2.049304      0.727754
  N      -0.859107     -0.802112      0.149158
  C       0.385744     -0.404018     -0.289629
  C       0.546746      0.934029     -0.927154
  N       0.275428      2.009622      0.033136
  C       1.400484      2.835335      0.464134
  C      -0.973452      2.255096      0.534308
  O      -1.217833      3.206622      1.273295
  C      -2.113810      1.334778      0.128509
  C      -2.066290     -0.070376     -0.010963
  C      -3.238416     -0.784433     -0.297059
  C      -4.457875     -0.134948     -0.434010
  C      -4.517695      1.258819     -0.288943
  C      -3.352560      1.971711     -0.002076
  N      -5.703541      2.023578     -0.412118
  N      -6.764350      1.430380     -0.653392
  N      -7.805547      1.019082     -0.873287
  H       6.551567     -2.272482      0.979596
  H       5.177298     -2.557473      2.069825
  H       5.306692     -1.021928      1.176297
  H       4.877889     -3.783407     -0.120129
  H       4.959121     -2.224084     -0.985246
  H      -1.514313     -2.578604      1.187291
  H       1.574116      1.031109     -1.275987
  H      -0.120670      1.031443     -1.794326
  H       2.222769      2.194955      0.801580
  H       1.760105      3.463170     -0.361067
  H       1.063817      3.475043      1.279094
  H      -3.185355     -1.860082     -0.431856
  H      -5.351471     -0.708957     -0.662465
  H      -3.403119      3.043733      0.148699
