42
Coordinates from ORCA-job /home/tchapet/Post-Doc/ARTICLES-DOSSIERS-DES-ARTICLES-EN-REDACTION/NOUVELS-AXES-DE-RECHERCHE-A-REGARDER-URGEMMENT/ARTICLES-EN-REDACTIONS/ARTICLE_MVOTO/Paper2_JCIM/solvatochromic_tddft/opt_new_geometries/9168/9168_opt E -999.814687198068
  C          -6.09793480033832      1.05293542634134      1.57051566342560
  C          -6.76781144240230     -0.01028195508938      0.93153869527831
  C          -6.04320415486923     -0.92573214938792      0.19617181349852
  C          -4.63685452348772     -0.81320853129158      0.07369301753877
  C          -3.95024539531736      0.25997937565271      0.71741286996690
  C          -4.72558991612029      1.18259646377996      1.46494345776139
  C          -2.50591913091810      0.36024746662410      0.58118419745432
  C          -1.76489378025017      1.40715170158544      1.20017715925369
  C          -0.40612074194290      1.50666782502173      1.07522601795856
  C           0.35236732384386      0.56752199357750      0.31686429317081
  C          -0.35236710570444     -0.49380064189872     -0.31686488070576
  C          -1.79231333883220     -0.59879290812511     -0.18388134297547
  C          -2.52996110164584     -1.65712049453599     -0.81022073052929
  C          -3.88438349598582     -1.75911221292495     -0.68724990480226
  C           0.40612089843896     -1.43294852965107     -1.07522617173672
  C           1.76489283475136     -1.33342477783508     -1.20018134133350
  C           2.50591854193277     -0.28652476379604     -0.58118402783407
  C           1.79231430859181      0.67251518992681      0.18388303207966
  C           2.52996183782851      1.73084064725386      0.81022452467473
  C           3.88438443522599      1.83282925429061      0.68724908267494
  C           4.63685516996152      0.88692300733228     -0.07369283050732
  C           3.95024472328084     -0.18626516776051     -0.71740978712850
  C           4.72558655195512     -1.10888717975765     -1.46493760170499
  C           6.09793127666166     -0.97922450111753     -1.57051461665892
  C           6.76780960865269      0.08399439529479     -0.93154176507813
  C           6.04320499080261      0.99944628215035     -0.19617409632603
  H          -6.66295795089800      1.77756592262182      2.15106818971264
  H          -7.84682051004907     -0.10598237217944      1.01882238707908
  H          -6.54406444024153     -1.75210839783315     -0.30342553813076
  H          -4.24514340088088      2.01319850884627      1.97018424879272
  H          -2.28089091607494      2.15477324958506      1.79180133411600
  H           0.09170831560416      2.32955305788513      1.57406562080106
  H          -2.00871217209153     -2.40192141171975     -1.39956421436715
  H          -4.41614784789794     -2.57355713754505     -1.17401825599461
  H          -0.09170460598818     -2.25583651237815     -1.57406679026380
  H           2.28089337641482     -2.08104345762139     -1.79180823461628
  H           2.00871785701457      2.47564052711095      1.39957256146738
  H           4.41614860515595      2.64727426089375      1.17401754499608
  H           4.24514015805886     -1.93949129332083     -1.97017606190681
  H           6.66295396521869     -1.70385557707394     -2.15106602556767
  H           7.84681869375206      0.17969270803492     -1.01882942873477
  H           6.54406726878993      1.82582474903385      0.30341794520167
