30
Generated from SMILES: O=NC1=c2cc(N(O)O)c3c(c2=NC1=O)CCCC3
O      5.542361    -0.726933    -0.873137
N      4.477297    -0.098583    -0.707950
C      3.234870    -0.786901    -0.561202
C      2.043882    -0.243591    -0.384494
C      1.702528     1.099865    -0.296642
C      0.351467     1.449285    -0.101206
N      0.017505     2.844939     0.031314
O     -0.930163     3.256512     0.908502
O      0.691806     3.777215    -0.686159
C     -0.648550     0.424831    -0.041679
C     -0.261102    -0.948210    -0.103081
C      1.094797    -1.247354    -0.289109
N      1.591597    -2.444468    -0.399028
C      2.985295    -2.214667    -0.577112
O      3.842157    -3.124980    -0.723882
C     -1.273511    -2.074125    -0.088601
C     -2.642599    -1.635532     0.430298
C     -3.069261    -0.338892    -0.249064
C     -2.111389     0.794150     0.125907
H      2.471329     1.860082    -0.356496
H     -0.442384     3.407724     1.758062
H      1.436434     4.065227    -0.098311
H     -0.905611    -2.906046     0.550487
H     -1.384353    -2.461395    -1.124865
H     -2.600452    -1.489819     1.532511
H     -3.389237    -2.430415     0.216038
H     -4.098421    -0.072298     0.075104
H     -3.080498    -0.475280    -1.353284
H     -2.357679     1.668043    -0.514927
H     -2.288115     1.071619     1.187664
