46
Generated from SMILES: O=C1N=c2c(=C1CNc1ccc(cc1)S(=O)(=O)Nc1ccccn1)c1scnc1cc2
O      2.292145    -2.667671    -3.408983
C      3.197994    -2.096873    -2.746851
N      4.516266    -1.869676    -3.235067
C      5.094598    -1.253693    -2.252795
C      4.265734    -1.052770    -1.150393
C      3.066242    -1.569715    -1.396516
C      1.833150    -1.547590    -0.540337
N      1.262344    -0.200335    -0.484942
C      0.124055     0.140975     0.327726
C     -0.318777     1.472799     0.364448
C     -1.421614     1.833929     1.143149
C     -2.096729     0.869697     1.899726
C     -1.663973    -0.462287     1.867120
C     -0.561854    -0.826279     1.087881
S     -3.503128     1.336793     2.850387
O     -3.120282     2.462711     3.769079
O     -3.994710     0.183943     3.680515
N     -4.769823     1.861009     1.790998
C     -5.295332     1.012716     0.762502
C     -6.288276     1.489945    -0.104156
C     -6.786014     0.652237    -1.104835
C     -6.292865    -0.647412    -1.232245
C     -5.304520    -1.091433    -0.351374
N     -4.832978    -0.261085     0.616552
C      4.764734    -0.377208    -0.034835
S      4.038226     0.035893     1.422698
C      5.438705     0.784457     2.007493
N      6.453961     0.727124     1.111107
C      6.078668     0.081955    -0.023343
C      6.922828    -0.124063    -1.128684
C      6.424337    -0.801111    -2.261508
H      2.095361    -1.891963     0.482107
H      1.081402    -2.248391    -0.961620
H      1.709909     0.559753    -1.048262
H      0.191232     2.233526    -0.213203
H     -1.752257     2.865004     1.153292
H     -2.181304    -1.222739     2.437473
H     -0.256516    -1.863482     1.081130
H     -5.136194     2.832871     1.902837
H     -6.669492     2.498615    -0.006203
H     -7.551996     1.010278    -1.780508
H     -6.672212    -1.303450    -2.004933
H     -4.911640    -2.095854    -0.436729
H      5.529030     1.256224     2.976285
H      7.943706     0.235677    -1.114815
H      7.057863    -0.963052    -3.124346
