44
Coordinates from ORCA-job /home/tchapet/Post-Doc/ARTICLES-DOSSIERS-DES-ARTICLES-EN-REDACTION/NOUVELS-AXES-DE-RECHERCHE-A-REGARDER-URGEMMENT/ARTICLES-EN-REDACTIONS/ARTICLE_MVOTO/Paper2_JCIM/solvatochromic_tddft/opt_new_geometries/18506/18506_opt E -1236.885799919457
  C          -5.99547555513842     -0.22089190435879      1.60899473861641
  C          -5.02529116398271      0.25236301007407      0.52066012779676
  C          -4.96653275818341     -0.70795747592858     -0.67449101870944
  C          -4.03776360127907     -0.25495275759313     -1.81063768618888
  N          -2.63113633895809     -0.17151289686768     -1.42166171763955
  C          -1.94811968841529      1.02306018244335     -1.14920910994206
  O          -2.43537915827130      2.14488661870166     -1.18499526094094
  C          -0.55392952334942      0.63579375368616     -0.82635328954534
  C          -0.45108914637434     -0.73693411854636     -0.92304062233241
  C          -1.77628548174674     -1.27651885886339     -1.31156829788579
  O          -2.09525586230706     -2.44141115645265     -1.51038476012316
  C           0.74733078794241     -1.44136892702298     -0.68061886299035
  N           0.76784592604776     -2.78737707445676     -0.79971509058235
  C           1.87572387686059     -0.63303266380671     -0.31484536036802
  C           1.76875079698516      0.79415671637139     -0.21402243576038
  C           0.52929760411766      1.46942142330456     -0.47527932573755
  N           0.34904689504849      2.80683290320441     -0.40509295794119
  C           2.94251497650204      1.60598373712845      0.16437248784852
  O           2.88708755938664      2.84312719813410      0.25930756320060
  C           4.22831382085790      0.91680544170633      0.43992389411975
  C           4.33302269083441     -0.48001418668013      0.34123628408429
  C           3.16079186498109     -1.30675802954353     -0.04162345236258
  O           3.29025408558953     -2.53941725363995     -0.12163719606801
  C           5.55833670881289     -1.10772106485604      0.60644717105576
  C           6.66717569626269     -0.34800457676309      0.96661483800109
  C           6.56268727263064      1.04645069254199      1.06495503312433
  C           5.34972459255921      1.67604962679992      0.80290205405878
  H          -5.70597325836054     -1.20511658990789      1.99817768768229
  H          -6.01749779118453      0.47801150859346      2.45297395760263
  H          -7.01800312995402     -0.30669133856958      1.22016905072932
  H          -5.31675105557107      1.25231218607320      0.17114208675516
  H          -4.02157851242246      0.36323106383008      0.95233877875771
  H          -4.65669216990772     -1.70741915578301     -0.34228744597382
  H          -5.97227750517516     -0.82193030723271     -1.10386814895676
  H          -4.31438487773763      0.74217558752790     -2.16635347861603
  H          -4.10337017800511     -0.95500046737433     -2.64976951511835
  H          -0.08664155848650     -3.25858733592162     -1.06765282446514
  H           1.63860129320116     -3.27132519030958     -0.62055152662959
  H          -0.56906637504294      3.17892908468539     -0.61146203907757
  H           1.13993239911668      3.38463973430869     -0.14993283939329
  H           5.61337932976207     -2.18790131653086      0.52302941205411
  H           7.61557947725614     -0.83743255411492      1.17174284688079
  H           7.43011214843502      1.63766481069602      1.34622093262140
  H           5.24298486666338      2.75338192131317      0.87171352835883
