38
5081 RDKit ETKDGv3(seed=42)+UFF
C      5.48857672    -2.02521664     1.16848242
C      4.79268628    -2.77949690     0.04133522
O      3.37647504    -2.64436160     0.14435217
C      2.68392224    -1.48144290    -0.21257617
O      3.30387168    -0.49688505    -0.69600818
C      1.22640017    -1.43074079    -0.00055574
N      0.55842064    -2.42474995     0.62189083
C     -0.72174049    -2.00207062     0.66704006
N     -0.88563821    -0.78415141     0.11109896
C      0.32811012    -0.42353070    -0.33559562
C      0.57408995     0.89067180    -1.00138545
N      0.34791839     1.95045836    -0.02013247
C      1.47221942     2.76792040     0.44729531
C     -0.97313009     2.19328815     0.51327728
O     -1.14478511     3.16372238     1.30226866
C     -2.16095422     1.36970145     0.14170742
C     -2.11485034    -0.04379737    -0.01407989
C     -3.30211187    -0.74309793    -0.29144791
C     -4.51682006    -0.07144832    -0.41906251
C     -4.57305928     1.32080620    -0.26500221
C     -3.40055151     2.02673359     0.01871359
N     -5.80486671     2.04537973    -0.38682455
N     -6.87548157     1.48825546    -0.63429584
N     -7.94520972     0.93352768    -0.88133477
H      6.58505741    -2.18817487     1.10527394
H      5.12580978    -2.39387625     2.15122415
H      5.28524444    -0.93688152     1.09030039
H      5.05144223    -3.85636345     0.12047187
H      5.14670473    -2.41164010    -0.94627801
H     -1.51958028    -2.57498246     1.12171963
H      1.58397510     0.95176926    -1.44657841
H     -0.13682481     1.01251869    -1.84675171
H      2.43276618     2.44619373    -0.00741160
H      1.29766911     3.83174912     0.18126954
H      1.56787116     2.67666764     1.54993368
H     -3.28481352    -1.81714500    -0.42558012
H     -5.41014696    -0.64164751    -0.63904159
H     -3.45866601     3.10233769     0.13982283
