41
Coordinates from ORCA-job /home/tchapet/Post-Doc/ARTICLES-DOSSIERS-DES-ARTICLES-EN-REDACTION/NOUVELS-AXES-DE-RECHERCHE-A-REGARDER-URGEMMENT/ARTICLES-EN-REDACTIONS/ARTICLE_MVOTO/Paper2_JCIM/solvatochromic_tddft/opt_gap_geometries/23424/23424_opt E -1899.524526329826
  O      -1.784297     -5.598736     -0.380135
  N      -2.100424     -4.563983     -1.003042
  C      -1.504212     -3.295691     -0.713094
  C      -1.901565     -2.171514     -1.445892
  C      -1.335636     -0.920823     -1.183144
  C      -0.364346     -0.779290     -0.179909
  C       0.033286     -1.906311      0.555671
  C      -0.531227     -3.157485      0.290913
  N       0.205828      0.512383      0.103048
  C       0.904366      1.249096     -0.959839
  C       2.224900      0.564428     -1.303382
  O       2.893000      1.320702     -2.283946
  S       4.320909      0.515621     -2.719062
  O       4.982466      1.288102     -3.824786
  O       4.011412     -0.869077     -3.217540
  C       5.452522      0.421866     -1.345409
  C       0.076852      1.091902      1.448803
  C      -1.363566      1.529700      1.711863
  O      -2.185060      0.392771      1.837889
  S      -3.808809      0.868799      1.743827
  O      -4.671940     -0.339552      1.971350
  O      -4.104483      1.423228      0.377792
  C      -4.203966      2.084238      2.986155
  H      -2.654410     -2.265239     -2.218540
  H      -1.670775     -0.059807     -1.746528
  H       0.790001     -1.818833      1.324390
  H      -0.207708     -4.014379      0.867787
  H       0.265897      1.308450     -1.866684
  H       1.112298      2.294497     -0.643645
  H       2.004441     -0.460395     -1.677238
  H       2.835172      0.503987     -0.375831
  H       5.090822     -0.323162     -0.607394
  H       6.453053      0.110989     -1.710575
  H       5.530658      1.416849     -0.860897
  H       0.397379      0.358086      2.218561
  H       0.740908      1.976510      1.558685
  H      -1.683342      2.189005      0.872766
  H      -1.384099      2.108873      2.660498
  H      -3.857309      1.727049      3.977674
  H      -3.707028      3.046114      2.744011
  H      -5.301966      2.241032      3.014828
41
Coordinates from ORCA-job /home/tchapet/Post-Doc/ARTICLES-DOSSIERS-DES-ARTICLES-EN-REDACTION/NOUVELS-AXES-DE-RECHERCHE-A-REGARDER-URGEMMENT/ARTICLES-EN-REDACTIONS/ARTICLE_MVOTO/Paper2_JCIM/solvatochromic_tddft/opt_gap_geometries/23424/23424_opt E -1899.560115404271
  O      -1.816555     -5.509471     -0.342551
  N      -2.149853     -4.544272     -1.026119
  C      -1.534320     -3.299027     -0.717063
  C      -1.896120     -2.183778     -1.479156
  C      -1.323192     -0.941531     -1.216202
  C      -0.379388     -0.800576     -0.185032
  C      -0.017622     -1.924691      0.578957
  C      -0.590611     -3.164959      0.315339
  N       0.198900      0.474707      0.093349
  C       0.921498      1.182892     -0.961441
  C       2.246954      0.484333     -1.280311
  O       2.932377      1.251976     -2.272289
  S       4.371923      0.530115     -2.763716
  O       4.972991      1.390197     -3.812202
  O       4.117049     -0.862277     -3.217871
  C       5.473779      0.503319     -1.356040
  C       0.057726      1.071043      1.423037
  C      -1.366732      1.567615      1.691558
  O      -2.236253      0.444438      1.831534
  S      -3.861974      0.873113      1.743368
  O      -4.666197     -0.339001      2.031195
  O      -4.151537      1.472187      0.413578
  C      -4.182069      2.081547      3.021435
  H      -2.629969     -2.285483     -2.271978
  H      -1.629121     -0.080392     -1.799506
  H       0.720222     -1.833996      1.369598
  H      -0.303289     -4.027450      0.906732
  H       0.308903      1.241923     -1.875746
  H       1.125542      2.218371     -0.649288
  H       2.037519     -0.531998     -1.649244
  H       2.839544      0.423241     -0.350760
  H       5.149058     -0.255321     -0.631153
  H       6.476606      0.253086     -1.722301
  H       5.493797      1.494287     -0.880683
  H       0.349453      0.346943      2.201987
  H       0.741145      1.927936      1.518253
  H      -1.670475      2.218438      0.855298
  H      -1.363430      2.157464      2.626918
  H      -3.803178      1.712057      3.984851
  H      -3.695906      3.034831      2.773105
  H      -5.267196      2.228165      3.080560
41
Coordinates from ORCA-job /home/tchapet/Post-Doc/ARTICLES-DOSSIERS-DES-ARTICLES-EN-REDACTION/NOUVELS-AXES-DE-RECHERCHE-A-REGARDER-URGEMMENT/ARTICLES-EN-REDACTIONS/ARTICLE_MVOTO/Paper2_JCIM/solvatochromic_tddft/opt_gap_geometries/23424/23424_opt E -1899.577948517390
  O      -1.906815     -5.487417     -0.330555
  N      -2.207014     -4.543091     -1.047713
  C      -1.566575     -3.308764     -0.714370
  C      -1.883348     -2.202642     -1.510393
  C      -1.303649     -0.965583     -1.249925
  C      -0.394612     -0.819832     -0.188054
  C      -0.078561     -1.940697      0.608096
  C      -0.659576     -3.172415      0.349321
  N       0.195880      0.441234      0.085025
  C       0.942135      1.122357     -0.963322
  C       2.269591      0.407946     -1.254689
  O       2.960781      1.185164     -2.255166
  S       4.396012      0.546360     -2.795913
  O       4.915317      1.481774     -3.788170
  O       4.197481     -0.849754     -3.192035
  C       5.464902      0.598352     -1.355060
  C       0.045363      1.054912      1.397501
  C      -1.358780      1.611110      1.663891
  O      -2.267157      0.504303      1.810620
  S      -3.884821      0.883047      1.724409
  O      -4.612987     -0.337009      2.052781
  O      -4.162998      1.537157      0.442698
  C      -4.133287      2.067883      3.049287
  H      -2.592553     -2.317812     -2.324892
  H      -1.573442     -0.107000     -1.856810
  H       0.634460     -1.842723      1.422057
  H      -0.415357     -4.037171      0.956798
  H       0.356528      1.181779     -1.889587
  H       1.146554      2.152324     -0.654673
  H       2.076913     -0.604632     -1.622358
  H       2.856937      0.352340     -0.328246
  H       5.176466     -0.169947     -0.634731
  H       6.474542      0.405222     -1.721946
  H       5.423585      1.591009     -0.899408
  H       0.304179      0.340537      2.190839
  H       0.750604      1.888351      1.480748
  H      -1.654669      2.255821      0.828711
  H      -1.340051      2.203228      2.591093
  H      -3.722617      1.671136      3.981373
  H      -3.656992      3.019631      2.803698
  H      -5.212368      2.203511      3.139071
41
Coordinates from ORCA-job /home/tchapet/Post-Doc/ARTICLES-DOSSIERS-DES-ARTICLES-EN-REDACTION/NOUVELS-AXES-DE-RECHERCHE-A-REGARDER-URGEMMENT/ARTICLES-EN-REDACTIONS/ARTICLE_MVOTO/Paper2_JCIM/solvatochromic_tddft/opt_gap_geometries/23424/23424_opt E -1899.584205578490
  O      -2.036054     -5.514616     -0.318689
  N      -2.236095     -4.580137     -1.084353
  C      -1.592099     -3.351381     -0.715992
  C      -1.804081     -2.267704     -1.575657
  C      -1.224721     -1.033824     -1.301325
  C      -0.413920     -0.870323     -0.164417
  C      -0.199301     -1.974593      0.690611
  C      -0.786667     -3.199534      0.423462
  N       0.197653      0.377119      0.112611
  C       0.953221      1.048840     -0.934653
  C       2.286477      0.338556     -1.210795
  O       2.963857      1.124402     -2.220592
  S       4.378264      0.538867     -2.825913
  O       4.741191      1.460581     -3.883992
  O       4.239128     -0.889433     -3.070880
  C       5.512757      0.783105     -1.448238
  C       0.051220      0.995642      1.419900
  C      -1.311276      1.655045      1.664309
  O      -2.296692      0.607442      1.785045
  S      -3.886184      1.026059      1.645857
  O      -4.614061     -0.217099      1.796562
  O      -4.050768      1.871087      0.470850
  C      -4.155026      2.026839      3.119019
  H      -2.441220     -2.403950     -2.444965
  H      -1.415539     -0.188200     -1.955098
  H       0.442688     -1.861283      1.560196
  H      -0.624415     -4.056349      1.069383
  H       0.385112      1.107604     -1.870739
  H       1.153101      2.078886     -0.626731
  H       2.115734     -0.676719     -1.578575
  H       2.882189      0.295832     -0.290828
  H       5.307320      0.068060     -0.651027
  H       6.510040      0.610667     -1.858576
  H       5.434990      1.810982     -1.089732
  H       0.241466      0.272544      2.223594
  H       0.808878      1.780252      1.517058
  H      -1.562007      2.316592      0.828678
  H      -1.274100      2.236547      2.595404
  H      -3.812820      1.479688      3.999335
  H      -3.635243      2.981850      3.030370
  H      -5.233000      2.192058      3.169524
41
Coordinates from ORCA-job /home/tchapet/Post-Doc/ARTICLES-DOSSIERS-DES-ARTICLES-EN-REDACTION/NOUVELS-AXES-DE-RECHERCHE-A-REGARDER-URGEMMENT/ARTICLES-EN-REDACTIONS/ARTICLE_MVOTO/Paper2_JCIM/solvatochromic_tddft/opt_gap_geometries/23424/23424_opt E -1899.587612343344
  O      -2.177837     -5.530918     -0.275628
  N      -2.252584     -4.623296     -1.096187
  C      -1.613277     -3.400776     -0.703363
  C      -1.690941     -2.350647     -1.624866
  C      -1.104311     -1.123411     -1.338120
  C      -0.418369     -0.932837     -0.124217
  C      -0.338874     -2.006697      0.792884
  C      -0.935607     -3.223257      0.512681
  N       0.210797      0.300485      0.166104
  C       0.953375      0.991938     -0.878363
  C       2.293186      0.302031     -1.167544
  O       2.943463      1.105966     -2.180155
  S       4.330610      0.543233     -2.853823
  O       4.539976      1.397067     -4.007600
  O       4.252448     -0.908310     -2.950579
  C       5.554183      0.973289     -1.599485
  C       0.078231      0.908322      1.478480
  C      -1.232215      1.672124      1.697050
  O      -2.300811      0.703993      1.758062
  S      -3.845100      1.226426      1.541037
  O      -4.617116      0.008257      1.396067
  O      -3.843332      2.284152      0.538208
  C      -4.223001      1.957174      3.146549
  H      -2.234773     -2.510961     -2.551437
  H      -1.194697     -0.301577     -2.041231
  H       0.209975     -1.874633      1.720971
  H      -0.876044     -4.060301      1.201161
  H       0.385785      1.059114     -1.812986
  H       1.143537      2.020624     -0.558010
  H       2.141001     -0.713018     -1.543708
  H       2.906789      0.263186     -0.258441
  H       5.428995      0.344918     -0.716316
  H       6.528442      0.783923     -2.057434
  H       5.459674      2.032942     -1.356887
  H       0.189400      0.164277      2.276209
  H       0.893303      1.629638      1.609449
  H      -1.413913      2.368182      0.872261
  H      -1.183834      2.226037      2.644869
  H      -4.021777      1.224650      3.929938
  H      -3.637173      2.866250      3.293981
  H      -5.287584      2.202442      3.120421
41
Coordinates from ORCA-job /home/tchapet/Post-Doc/ARTICLES-DOSSIERS-DES-ARTICLES-EN-REDACTION/NOUVELS-AXES-DE-RECHERCHE-A-REGARDER-URGEMMENT/ARTICLES-EN-REDACTIONS/ARTICLE_MVOTO/Paper2_JCIM/solvatochromic_tddft/opt_gap_geometries/23424/23424_opt E -1899.590575803357
  O      -2.320748     -5.570494     -0.244612
  N      -2.234106     -4.706382     -1.112674
  C      -1.611975     -3.487811     -0.695336
  C      -1.514430     -2.487681     -1.668717
  C      -0.923799     -1.267629     -1.364758
  C      -0.411104     -1.027328     -0.073214
  C      -0.508536     -2.055294      0.897545
  C      -1.105887     -3.264270      0.594743
  N       0.225009      0.191266      0.242064
  C       0.931952      0.939975     -0.788881
  C       2.278682      0.289717     -1.125652
  O       2.888810      1.142650     -2.121508
  S       4.237875      0.612492     -2.891699
  O       4.304047      1.421621     -4.097986
  O       4.222733     -0.847693     -2.911217
  C       5.537986      1.158344     -1.765486
  C       0.112034      0.778426      1.566143
  C      -1.125883      1.659211      1.762142
  O      -2.284069      0.798169      1.747140
  S      -3.758292      1.461212      1.446607
  O      -4.574950      0.338899      1.017465
  O      -3.573310      2.666799      0.641979
  C      -4.279728      1.952552      3.102391
  H      -1.927340     -2.685112     -2.653710
  H      -0.882022     -0.488174     -2.116993
  H      -0.089660     -1.896289      1.885706
  H      -1.178176     -4.066871      1.321924
  H       0.350926      1.038600     -1.710275
  H       1.107154      1.958660     -0.428974
  H       2.145236     -0.714539     -1.535357
  H       2.917838      0.231827     -0.234507
  H       5.474654      0.600878     -0.828738
  H       6.488425      0.945270     -2.262173
  H       5.432720      2.232872     -1.606881
  H       0.128623      0.010115      2.343978
  H       0.988691      1.414147      1.744399
  H      -1.217306      2.397374      0.960748
  H      -1.065532      2.174495      2.731674
  H      -4.251360      1.076445      3.752114
  H      -3.631177      2.750102      3.471396
  H      -5.304009      2.323452      3.009191
41
Coordinates from ORCA-job /home/tchapet/Post-Doc/ARTICLES-DOSSIERS-DES-ARTICLES-EN-REDACTION/NOUVELS-AXES-DE-RECHERCHE-A-REGARDER-URGEMMENT/ARTICLES-EN-REDACTIONS/ARTICLE_MVOTO/Paper2_JCIM/solvatochromic_tddft/opt_gap_geometries/23424/23424_opt E -1899.593253396563
  O      -2.481034     -5.610188     -0.259920
  N      -2.187666     -4.807110     -1.143998
  C      -1.588220     -3.597334     -0.690508
  C      -1.258293     -2.663845     -1.678216
  C      -0.663025     -1.456960     -1.339642
  C      -0.382818     -1.147566      0.011796
  C      -0.714288     -2.115174      1.000021
  C      -1.308493     -3.311973      0.655925
  N       0.253630      0.051016      0.365075
  C       0.902084      0.885080     -0.640129
  C       2.242990      0.285244     -1.073969
  O       2.794410      1.215260     -2.034213
  S       4.072876      0.739050     -2.951714
  O       3.981389      1.545773     -4.160969
  O       4.114738     -0.723411     -2.975415
  C       5.457566      1.337658     -1.964209
  C       0.151311      0.622808      1.699353
  C      -0.996537      1.622636      1.860875
  O      -2.234383      0.888344      1.744982
  S      -3.607748      1.701254      1.339786
  O      -4.429170      0.721215      0.644952
  O      -3.234569      2.986453      0.745380
  C      -4.321890      2.007829      2.965948
  H      -1.490685     -2.907869     -2.710794
  H      -0.437833     -0.742788     -2.121459
  H      -0.478105     -1.925583      2.039805
  H      -1.556893     -4.063633      1.398523
  H       0.282788      1.045650     -1.526429
  H       1.074253      1.877451     -0.212621
  H       2.111807     -0.692650     -1.542769
  H       2.923821      0.179940     -0.218845
  H       5.470323      0.812101     -1.006642
  H       6.372122      1.118347     -2.521227
  H       5.342747      2.415198     -1.834410
  H       0.057714     -0.156917      2.453857
  H       1.081682      1.157979      1.932982
  H      -0.970060      2.398301      1.091446
  H      -0.941456      2.094371      2.852570
  H      -4.474617      1.046236      3.458539
  H      -3.651235      2.655390      3.535536
  H      -5.279236      2.512416      2.810748
41
Coordinates from ORCA-job /home/tchapet/Post-Doc/ARTICLES-DOSSIERS-DES-ARTICLES-EN-REDACTION/NOUVELS-AXES-DE-RECHERCHE-A-REGARDER-URGEMMENT/ARTICLES-EN-REDACTIONS/ARTICLE_MVOTO/Paper2_JCIM/solvatochromic_tddft/opt_gap_geometries/23424/23424_opt E -1899.593879293043
  O      -2.628661     -5.605403     -0.330623
  N      -2.131071     -4.876261     -1.188590
  C      -1.553115     -3.674272     -0.702003
  C      -0.990050     -2.821214     -1.656535
  C      -0.394774     -1.626836     -1.280519
  C      -0.347989     -1.236685      0.081408
  C      -0.918885     -2.124115      1.040158
  C      -1.506809     -3.309888      0.655007
  N       0.279313     -0.053530      0.460779
  C       0.874515      0.835700     -0.532587
  C       2.213343      0.288525     -1.037294
  O       2.709190      1.271769     -1.975570
  S       3.923118      0.842350     -3.002983
  O       3.726622      1.659397     -4.192643
  O       3.996669     -0.618252     -3.062196
  C       5.358482      1.458754     -2.107009
  C       0.179844      0.517158      1.798976
  C      -0.906171      1.585884      1.939879
  O      -2.184022      0.933615      1.772104
  S      -3.479804      1.833735      1.290223
  O      -4.282107      0.949199      0.458191
  O      -2.998891      3.131383      0.809334
  C      -4.318017      2.073939      2.864932
  H      -1.034077     -3.121335     -2.699691
  H       0.023583     -0.992189     -2.051418
  H      -0.891534     -1.882823      2.094451
  H      -1.940941     -3.992109      1.379025
  H       0.212976      1.021275     -1.386051
  H       1.039138      1.811371     -0.067836
  H       2.092292     -0.674325     -1.537317
  H       2.924794      0.167289     -0.210412
  H       5.425052      0.939825     -1.148138
  H       6.243655      1.243461     -2.710153
  H       5.238210      2.535267     -1.973607
  H       0.018039     -0.262566      2.539948
  H       1.137610      0.986526      2.063062
  H      -0.804925      2.374415      1.190588
  H      -0.852329      2.038634      2.939727
  H      -4.574043      1.091663      3.265641
  H      -3.655283      2.624829      3.535977
  H      -5.222949      2.655840      2.673764
41
Coordinates from ORCA-job /home/tchapet/Post-Doc/ARTICLES-DOSSIERS-DES-ARTICLES-EN-REDACTION/NOUVELS-AXES-DE-RECHERCHE-A-REGARDER-URGEMMENT/ARTICLES-EN-REDACTIONS/ARTICLE_MVOTO/Paper2_JCIM/solvatochromic_tddft/opt_gap_geometries/23424/23424_opt E -1899.594646167560
  O      -2.674175     -5.589947     -0.276830
  N      -2.207402     -4.864901     -1.154460
  C      -1.607927     -3.663317     -0.691366
  C      -1.075418     -2.813672     -1.666728
  C      -0.464164     -1.620019     -1.314109
  C      -0.365767     -1.228732      0.044624
  C      -0.918874     -2.103671      1.023449
  C      -1.521116     -3.290298      0.661484
  N       0.266630     -0.040428      0.397830
  C       0.872474      0.819979     -0.616361
  C       2.249147      0.301750     -1.050165
  O       2.744268      1.259695     -2.015286
  S       4.008790      0.823427     -2.978473
  O       3.851223      1.597759     -4.200085
  O       4.109905     -0.635123     -2.996016
  C       5.392976      1.492336     -2.042147
  C       0.189216      0.539997      1.733775
  C      -0.914839      1.586339      1.903129
  O      -2.183496      0.907479      1.775884
  S      -3.509497      1.784120      1.329190
  O      -4.332366      0.882419      0.539340
  O      -3.065138      3.077437      0.807759
  C      -4.291292      2.037558      2.929759
  H      -1.154733     -3.113306     -2.708035
  H      -0.076777     -0.986471     -2.101992
  H      -0.877927     -1.848882      2.074840
  H      -1.942899     -3.960792      1.403538
  H       0.228715      0.942865     -1.496086
  H       0.992227      1.819914     -0.192312
  H       2.184901     -0.687329     -1.505316
  H       2.930257      0.248464     -0.191441
  H       5.432296      1.001694     -1.067331
  H       6.303749      1.278139     -2.605834
  H       5.249958      2.569486     -1.940416
  H       0.062023     -0.241269      2.482708
  H       1.144624      1.029080      1.966870
  H      -0.847137      2.375169      1.150121
  H      -0.839613      2.043262      2.899326
  H      -4.515624      1.059940      3.359979
  H      -3.615046      2.609946      3.568024
  H      -5.212152      2.599903      2.759162
41
Coordinates from ORCA-job /home/tchapet/Post-Doc/ARTICLES-DOSSIERS-DES-ARTICLES-EN-REDACTION/NOUVELS-AXES-DE-RECHERCHE-A-REGARDER-URGEMMENT/ARTICLES-EN-REDACTIONS/ARTICLE_MVOTO/Paper2_JCIM/solvatochromic_tddft/opt_gap_geometries/23424/23424_opt E -1899.595287289681
  O      -2.715229     -5.566658     -0.246490
  N      -2.197296     -4.887323     -1.131719
  C      -1.617000     -3.666416     -0.695031
  C      -1.017882     -2.870051     -1.677194
  C      -0.418877     -1.663350     -1.349261
  C      -0.399715     -1.201188     -0.008482
  C      -1.027588     -2.016916      0.975448
  C      -1.615426     -3.218332      0.637614
  N       0.230767     -0.006341      0.321763
  C       0.857752      0.823797     -0.705245
  C       2.262517      0.323848     -1.067196
  O       2.772923      1.256790     -2.048871
  S       4.066261      0.801222     -2.965178
  O       3.946570      1.545758     -4.207160
  O       4.168567     -0.655557     -2.951855
  C       5.417170      1.493959     -1.999471
  C       0.192775      0.573934      1.659172
  C      -0.923096      1.597767      1.881379
  O      -2.183572      0.896356      1.809413
  S      -3.541753      1.749151      1.409801
  O      -4.379757      0.836790      0.651967
  O      -3.140733      3.046525      0.868521
  C      -4.262567      1.986976      3.040224
  H      -1.030418     -3.220870     -2.705473
  H       0.029329     -1.081553     -2.144593
  H      -1.075810     -1.699018      2.009408
  H      -2.096583     -3.838780      1.387107
  H       0.236868      0.890723     -1.605599
  H       0.942466      1.843375     -0.320698
  H       2.243595     -0.684705     -1.482094
  H       2.907616      0.324605     -0.179089
  H       5.425669      1.028001     -1.011882
  H       6.344493      1.266486     -2.529850
  H       5.272855      2.573035     -1.924959
  H       0.111792     -0.214333      2.408882
  H       1.148037      1.080123      1.850732
  H      -0.900422      2.392664      1.132155
  H      -0.810500      2.051990      2.875200
  H      -4.449163      1.006692      3.482110
  H      -3.573744      2.571753      3.653171
  H      -5.200890      2.529072      2.903323
41
Coordinates from ORCA-job /home/tchapet/Post-Doc/ARTICLES-DOSSIERS-DES-ARTICLES-EN-REDACTION/NOUVELS-AXES-DE-RECHERCHE-A-REGARDER-URGEMMENT/ARTICLES-EN-REDACTIONS/ARTICLE_MVOTO/Paper2_JCIM/solvatochromic_tddft/opt_gap_geometries/23424/23424_opt E -1899.595555693973
  O      -2.819826     -5.565090     -0.210518
  N      -2.161894     -4.995159     -1.080094
  C      -1.630579     -3.731959     -0.704780
  C      -0.867877     -3.059130     -1.666847
  C      -0.298107     -1.825486     -1.393084
  C      -0.474725     -1.204271     -0.128392
  C      -1.283298     -1.883786      0.824986
  C      -1.836236     -3.116745      0.541994
  N       0.136125      0.009345      0.157666
  C       0.797849      0.785925     -0.887483
  C       2.262304      0.370631     -1.087664
  O       2.793779      1.264851     -2.093274
  S       4.153286      0.809141     -2.910359
  O       4.091388      1.497749     -4.185430
  O       4.291417     -0.640311     -2.833769
  C       5.416682      1.581445     -1.889464
  C       0.188738      0.577533      1.497837
  C      -0.908680      1.592253      1.828821
  O      -2.170169      0.893397      1.882321
  S      -3.559393      1.740331      1.575597
  O      -4.455678      0.821179      0.901688
  O      -3.204607      3.026260      0.984088
  C      -4.139148      1.991740      3.258551
  H      -0.718895     -3.527577     -2.635921
  H       0.297392     -1.360620     -2.168505
  H      -1.541431     -1.420315      1.768096
  H      -2.459537     -3.624525      1.271360
  H       0.241293      0.713989     -1.824855
  H       0.779842      1.841829     -0.599624
  H       2.360440     -0.666121     -1.413154
  H       2.817792      0.495880     -0.148021
  H       5.373098      1.161816     -0.882038
  H       6.381168      1.355969     -2.350383
  H       5.243356      2.658501     -1.868961
  H       0.184681     -0.226073      2.239478
  H       1.150762      1.093529      1.607829
  H      -0.955883      2.391889      1.085439
  H      -0.699207      2.045042      2.807930
  H      -4.277602      1.017545      3.730393
  H      -3.406874      2.587137      3.807747
  H      -5.091745      2.522260      3.190799
41
Coordinates from ORCA-job /home/tchapet/Post-Doc/ARTICLES-DOSSIERS-DES-ARTICLES-EN-REDACTION/NOUVELS-AXES-DE-RECHERCHE-A-REGARDER-URGEMMENT/ARTICLES-EN-REDACTIONS/ARTICLE_MVOTO/Paper2_JCIM/solvatochromic_tddft/opt_gap_geometries/23424/23424_opt E -1899.596075107158
  O      -2.681185     -5.663133     -0.233192
  N      -2.091889     -5.041889     -1.116624
  C      -1.580556     -3.774049     -0.726169
  C      -0.891475     -3.047904     -1.704878
  C      -0.344232     -1.806403     -1.419132
  C      -0.476061     -1.233137     -0.127988
  C      -1.198199     -1.973252      0.848162
  C      -1.730805     -3.212704      0.553180
  N       0.117997     -0.012055      0.174076
  C       0.773416      0.783740     -0.858904
  C       2.230558      0.357851     -1.082629
  O       2.764009      1.272586     -2.067839
  S       4.115224      0.830607     -2.903610
  O       4.047836      1.559637     -4.157041
  O       4.242656     -0.622311     -2.865585
  C       5.394263      1.562974     -1.871180
  C       0.157658      0.537693      1.522519
  C      -0.914731      1.583653      1.841013
  O      -2.200659      0.929959      1.868846
  S      -3.554690      1.825781      1.549855
  O      -4.475539      0.930476      0.874652
  O      -3.147561      3.096676      0.957612
  C      -4.142035      2.108727      3.226220
  H      -0.783056     -3.481439     -2.695267
  H       0.196899     -1.294619     -2.205302
  H      -1.389989     -1.555866      1.827938
  H      -2.287003     -3.771309      1.299445
  H       0.213944      0.734806     -1.795437
  H       0.763683      1.834145     -0.549469
  H       2.310051     -0.670291     -1.441236
  H       2.798792      0.447394     -0.146455
  H       5.360818      1.109659     -0.877973
  H       6.352966      1.349275     -2.349946
  H       5.225817      2.639631     -1.815535
  H       0.117220     -0.272272      2.255898
  H       1.130120      1.028052      1.659795
  H      -0.925117      2.386547      1.099626
  H      -0.708790      2.024622      2.826450
  H      -4.316534      1.142411      3.702289
  H      -3.397140      2.686567      3.777438
  H      -5.076680      2.669169      3.146376
41
Coordinates from ORCA-job /home/tchapet/Post-Doc/ARTICLES-DOSSIERS-DES-ARTICLES-EN-REDACTION/NOUVELS-AXES-DE-RECHERCHE-A-REGARDER-URGEMMENT/ARTICLES-EN-REDACTIONS/ARTICLE_MVOTO/Paper2_JCIM/solvatochromic_tddft/opt_gap_geometries/23424/23424_opt E -1899.596272057726
  O      -2.719354     -5.655562     -0.230772
  N      -2.113219     -5.045987     -1.110754
  C      -1.593215     -3.781519     -0.721376
  C      -0.887611     -3.067780     -1.697604
  C      -0.330406     -1.830523     -1.412763
  C      -0.466739     -1.252534     -0.124657
  C      -1.208349     -1.978107      0.847947
  C      -1.751125     -3.213486      0.553996
  N       0.116626     -0.025836      0.174254
  C       0.766168      0.776250     -0.856756
  C       2.227718      0.364355     -1.078572
  O       2.759229      1.292451     -2.051841
  S       4.105955      0.862996     -2.901183
  O       4.028428      1.609928     -4.144609
  O       4.234927     -0.591116     -2.881537
  C       5.394037      1.581490     -1.869804
  C       0.164812      0.517913      1.524947
  C      -0.899918      1.569190      1.845018
  O      -2.189161      0.922613      1.876974
  S      -3.539039      1.819028      1.542966
  O      -4.460222      0.915273      0.877366
  O      -3.125148      3.081420      0.935383
  C      -4.133266      2.128938      3.212449
  H      -0.775754     -3.507860     -2.684670
  H       0.219708     -1.324398     -2.196378
  H      -1.404458     -1.549833      1.822479
  H      -2.321159     -3.763070      1.296505
  H       0.211541      0.719199     -1.796487
  H       0.742501      1.826891     -0.549524
  H       2.313708     -0.658708     -1.449252
  H       2.794166      0.446208     -0.140833
  H       5.370270      1.112961     -0.883524
  H       6.349156      1.377002     -2.359414
  H       5.223739      2.656949     -1.798059
  H       0.120645     -0.293232      2.255177
  H       1.139766      1.004941      1.664997
  H      -0.908537      2.369469      1.100756
  H      -0.688711      2.010056      2.829227
  H      -4.310994      1.169539      3.701171
  H      -3.389949      2.714980      3.756896
  H      -5.066768      2.689510      3.121863
41
Coordinates from ORCA-job /home/tchapet/Post-Doc/ARTICLES-DOSSIERS-DES-ARTICLES-EN-REDACTION/NOUVELS-AXES-DE-RECHERCHE-A-REGARDER-URGEMMENT/ARTICLES-EN-REDACTIONS/ARTICLE_MVOTO/Paper2_JCIM/solvatochromic_tddft/opt_gap_geometries/23424/23424_opt E -1899.596445419449
  O      -2.726420     -5.698040     -0.242770
  N      -2.084606     -5.108656     -1.110992
  C      -1.583350     -3.833442     -0.731494
  C      -0.836447     -3.145030     -1.695300
  C      -0.292455     -1.900020     -1.418810
  C      -0.485732     -1.292073     -0.152899
  C      -1.270756     -1.990467      0.805677
  C      -1.798968     -3.234574      0.520900
  N       0.069182     -0.050305      0.136650
  C       0.721105      0.750127     -0.891848
  C       2.201628      0.384940     -1.069028
  O       2.736932      1.331236     -2.021747
  S       4.087986      0.924448     -2.875221
  O       4.010146      1.701515     -4.101475
  O       4.220350     -0.530728     -2.886462
  C       5.376319      1.619799     -1.827958
  C       0.160504      0.473737      1.493257
  C      -0.873073      1.544021      1.845626
  O      -2.174680      0.926742      1.917292
  S      -3.513125      1.836312      1.572610
  O      -4.462597      0.921045      0.962037
  O      -3.085687      3.065641      0.907034
  C      -4.074408      2.229095      3.236461
  H      -0.680907     -3.612436     -2.663630
  H       0.293878     -1.411543     -2.187598
  H      -1.513246     -1.527578      1.753264
  H      -2.404362     -3.764542      1.249428
  H       0.196852      0.646630     -1.845409
  H       0.647949      1.806805     -0.613939
  H       2.325910     -0.633023     -1.442625
  H       2.740948      0.477617     -0.116497
  H       5.356796      1.124842     -0.854647
  H       6.331667      1.432593     -2.323883
  H       5.201390      2.692511     -1.729696
  H       0.118913     -0.345810      2.213414
  H       1.146309      0.944839      1.620528
  H      -0.887731      2.341967      1.098884
  H      -0.623630      1.979981      2.822986
  H      -4.256247      1.293954      3.768825
  H      -3.314431      2.829621      3.740562
  H      -5.001910      2.798249      3.138493
41
Coordinates from ORCA-job /home/tchapet/Post-Doc/ARTICLES-DOSSIERS-DES-ARTICLES-EN-REDACTION/NOUVELS-AXES-DE-RECHERCHE-A-REGARDER-URGEMMENT/ARTICLES-EN-REDACTIONS/ARTICLE_MVOTO/Paper2_JCIM/solvatochromic_tddft/opt_gap_geometries/23424/23424_opt E -1899.596464347477
  O      -2.726948     -5.691205     -0.241758
  N      -2.084324     -5.100985     -1.108758
  C      -1.581473     -3.826863     -0.727087
  C      -0.835502     -3.137694     -1.690778
  C      -0.290205     -1.893479     -1.412627
  C      -0.482353     -1.288314     -0.145467
  C      -1.266083     -1.988049      0.813429
  C      -1.795376     -3.231064      0.527300
  N       0.073698     -0.047610      0.148721
  C       0.725598      0.758755     -0.875574
  C       2.204040      0.389867     -1.064672
  O       2.739006      1.347584     -2.006364
  S       4.073076      0.941406     -2.885715
  O       3.988947      1.744003     -4.095077
  O       4.187281     -0.514937     -2.927389
  C       5.384622      1.599258     -1.843000
  C       0.163654      0.469725      1.508342
  C      -0.871913      1.538271      1.861448
  O      -2.172720      0.917430      1.925941
  S      -3.510543      1.818068      1.559554
  O      -4.452064      0.891172      0.954160
  O      -3.081969      3.040266      0.881294
  C      -4.086902      2.232805      3.212950
  H      -0.681917     -3.605016     -2.659469
  H       0.296288     -1.402977     -2.179878
  H      -1.503249     -1.525664      1.762877
  H      -2.400010     -3.763337      1.254740
  H       0.197758      0.665983     -1.828239
  H       0.657130      1.813397     -0.588710
  H       2.320842     -0.622927     -1.454487
  H       2.750292      0.465820     -0.114882
  H       5.372449      1.083837     -0.880240
  H       6.330576      1.411097     -2.356257
  H       5.224004      2.671744     -1.720735
  H       0.117068     -0.353404      2.224538
  H       1.149479      0.938054      1.643307
  H      -0.885948      2.338175      1.116906
  H      -0.628080      1.970984      2.841587
  H      -4.271044      1.304518      3.756383
  H      -3.332454      2.842763      3.714097
  H      -5.014730      2.798539      3.099591
41
Coordinates from ORCA-job /home/tchapet/Post-Doc/ARTICLES-DOSSIERS-DES-ARTICLES-EN-REDACTION/NOUVELS-AXES-DE-RECHERCHE-A-REGARDER-URGEMMENT/ARTICLES-EN-REDACTIONS/ARTICLE_MVOTO/Paper2_JCIM/solvatochromic_tddft/opt_gap_geometries/23424/23424_opt E -1899.596508332781
  O      -2.711334     -5.695827     -0.253868
  N      -2.067490     -5.100526     -1.116434
  C      -1.569331     -3.826223     -0.728588
  C      -0.823387     -3.131765     -1.688039
  C      -0.282246     -1.886939     -1.403863
  C      -0.479495     -1.287533     -0.134988
  C      -1.264773     -1.992469      0.819416
  C      -1.789296     -3.235782      0.527671
  N       0.073801     -0.046549      0.165990
  C       0.725205      0.766188     -0.853719
  C       2.203670      0.400302     -1.050929
  O       2.736567      1.373007     -1.978852
  S       4.043453      0.967143     -2.897563
  O       3.951751      1.806622     -4.080752
  O       4.127415     -0.489131     -2.985580
  C       5.389297      1.566989     -1.863792
  C       0.166338      0.462366      1.529059
  C      -0.868244      1.531116      1.887968
  O      -2.169913      0.909886      1.948888
  S      -3.504147      1.798696      1.546051
  O      -4.438003      0.855181      0.955345
  O      -3.070931      3.003634      0.840455
  C      -4.098515      2.257213      3.181333
  H      -0.666565     -3.596909     -2.657282
  H       0.305378     -1.390821     -2.166596
  H      -1.505152     -1.531716      1.768814
  H      -2.395118     -3.773487      1.250100
  H       0.195322      0.680340     -1.805918
  H       0.657067      1.818925     -0.559630
  H       2.318981     -0.606229     -1.457254
  H       2.753940      0.462025     -0.102635
  H       5.386203      1.022007     -0.917357
  H       6.320314      1.376186     -2.402774
  H       5.252915      2.638160     -1.705841
  H       0.114104     -0.365394      2.239860
  H       1.154207      0.923945      1.669601
  H      -0.882220      2.334510      1.147288
  H      -0.627166      1.958363      2.870997
  H      -4.289157      1.343752      3.747178
  H      -3.348943      2.880405      3.673528
  H      -5.024500      2.820339      3.042715
41
Coordinates from ORCA-job /home/tchapet/Post-Doc/ARTICLES-DOSSIERS-DES-ARTICLES-EN-REDACTION/NOUVELS-AXES-DE-RECHERCHE-A-REGARDER-URGEMMENT/ARTICLES-EN-REDACTIONS/ARTICLE_MVOTO/Paper2_JCIM/solvatochromic_tddft/opt_gap_geometries/23424/23424_opt E -1899.596558936720
  O      -2.673701     -5.706621     -0.272230
  N      -2.032271     -5.101135     -1.129436
  C      -1.545435     -3.824796     -0.733035
  C      -0.801475     -3.120274     -1.686247
  C      -0.270414     -1.872957     -1.393414
  C      -0.476724     -1.282308     -0.122089
  C      -1.261568     -1.997259      0.825671
  C      -1.775664     -3.242543      0.525598
  N       0.069481     -0.040038      0.188982
  C       0.722158      0.780580     -0.823331
  C       2.202318      0.421903     -1.022897
  O       2.736204      1.414994     -1.929294
  S       3.994570      1.007327     -2.911916
  O       3.896846      1.907497     -4.048512
  O       4.018542     -0.444269     -3.076254
  C       5.396434      1.502904     -1.897704
  C       0.167920      0.454172      1.556895
  C      -0.864523      1.521038      1.930056
  O      -2.167057      0.899269      1.991905
  S      -3.496647      1.763965      1.529821
  O      -4.418713      0.791097      0.970265
  O      -3.058023      2.936387      0.774962
  C      -4.115891      2.297413      3.132767
  H      -0.638660     -3.580992     -2.656638
  H       0.317119     -1.367582     -2.150048
  H      -1.509316     -1.539870      1.774826
  H      -2.381179     -3.789697      1.241191
  H       0.193296      0.700995     -1.776438
  H       0.651836      1.831116     -0.521581
  H       2.321179     -0.575954     -1.449357
  H       2.751672      0.468010     -0.073310
  H       5.404016      0.909297     -0.980982
  H       6.300368      1.306437     -2.479181
  H       5.307152      2.568577     -1.680256
  H       0.110940     -0.381404      2.258419
  H       1.159027      0.907022      1.701608
  H      -0.882317      2.331015      1.196658
  H      -0.623241      1.938396      2.916959
  H      -4.314435      1.411693      3.738548
  H      -3.373983      2.944269      3.605753
  H      -5.039841      2.852325      2.953264
41
Coordinates from ORCA-job /home/tchapet/Post-Doc/ARTICLES-DOSSIERS-DES-ARTICLES-EN-REDACTION/NOUVELS-AXES-DE-RECHERCHE-A-REGARDER-URGEMMENT/ARTICLES-EN-REDACTIONS/ARTICLE_MVOTO/Paper2_JCIM/solvatochromic_tddft/opt_gap_geometries/23424/23424_opt E -1899.596615729916
  O      -2.628190     -5.714742     -0.301652
  N      -1.988801     -5.095731     -1.150704
  C      -1.514632     -3.818842     -0.740802
  C      -0.772046     -3.099982     -1.684191
  C      -0.252198     -1.851248     -1.377554
  C      -0.468764     -1.274060     -0.101763
  C      -1.254041     -2.002948      0.835353
  C      -1.756549     -3.249402      0.521693
  N       0.067123     -0.030485      0.223039
  C       0.721625      0.800772     -0.779293
  C       2.204254      0.450720     -0.977584
  O       2.743269      1.465242     -1.857857
  S       3.929285      1.055433     -2.925437
  O       3.825236      2.027227     -4.000496
  O       3.866631     -0.382039     -3.178665
  C       5.403088      1.414479     -1.956919
  C       0.169453      0.446799      1.596582
  C      -0.860993      1.510148      1.985033
  O      -2.164659      0.888915      2.049165
  S      -3.486313      1.718462      1.509186
  O      -4.390847      0.709978      0.985953
  O      -3.037227      2.848124      0.697623
  C      -4.143617      2.340719      3.064175
  H      -0.601879     -3.551629     -2.657592
  H       0.334598     -1.333953     -2.126655
  H      -1.511602     -1.553687      1.785751
  H      -2.362313     -3.808362      1.227927
  H       0.195326      0.729284     -1.734446
  H       0.648553      1.848200     -0.467606
  H       2.329065     -0.537149     -1.425064
  H       2.748824      0.480706     -0.024854
  H       5.423523      0.763699     -1.080042
  H       6.265686      1.210686     -2.595858
  H       5.381827      2.466983     -1.669387
  H       0.108344     -0.397019      2.287736
  H       1.163284      0.892298      1.745939
  H      -0.883094      2.327642      1.260016
  H      -0.618759      1.915985      2.976124
  H      -4.354540      1.491384      3.716112
  H      -3.413881      3.015989      3.515896
  H      -5.064050      2.881406      2.831119
41
Coordinates from ORCA-job /home/tchapet/Post-Doc/ARTICLES-DOSSIERS-DES-ARTICLES-EN-REDACTION/NOUVELS-AXES-DE-RECHERCHE-A-REGARDER-URGEMMENT/ARTICLES-EN-REDACTIONS/ARTICLE_MVOTO/Paper2_JCIM/solvatochromic_tddft/opt_gap_geometries/23424/23424_opt E -1899.596729832241
  O      -2.595563     -5.713200     -0.332887
  N      -1.954631     -5.082679     -1.172288
  C      -1.488904     -3.807572     -0.747426
  C      -0.744427     -3.076384     -1.679722
  C      -0.231975     -1.828362     -1.358087
  C      -0.458256     -1.264927     -0.077873
  C      -1.246345     -2.005905      0.847587
  C      -1.741232     -3.251435      0.519106
  N       0.069464     -0.021711      0.262055
  C       0.726632      0.821052     -0.728812
  C       2.210875      0.476886     -0.927111
  O       2.756569      1.510542     -1.781479
  S       3.862115      1.105422     -2.933343
  O       3.754603      2.143390     -3.944152
  O       3.708825     -0.309080     -3.265437
  C       5.401430      1.329945     -2.028473
  C       0.173148      0.437780      1.641601
  C      -0.855931      1.497774      2.042391
  O      -2.160894      0.877591      2.105547
  S      -3.470403      1.667615      1.484881
  O      -4.356461      0.625414      0.997595
  O      -3.005640      2.751302      0.621072
  C      -4.170863      2.376107      2.983078
  H      -0.567375     -3.518606     -2.656227
  H       0.356407     -1.300745     -2.098720
  H      -1.511807     -1.565255      1.799896
  H      -2.349252     -3.820473      1.215303
  H       0.202863      0.759950     -1.686068
  H       0.652049      1.864874     -0.405637
  H       2.338510     -0.500866     -1.395548
  H       2.751973      0.489121      0.027663
  H       5.432748      0.626046     -1.193933
  H       6.217394      1.123219     -2.725155
  H       5.451427      2.362336     -1.678370
  H       0.106756     -0.414355      2.321985
  H       1.168916      0.876649      1.798150
  H      -0.879960      2.321978      1.324995
  H      -0.614664      1.892796      3.037752
  H      -4.398047      1.565633      3.677668
  H      -3.454600      3.078681      3.414276
  H      -5.085474      2.899452      2.694148
41
Coordinates from ORCA-job /home/tchapet/Post-Doc/ARTICLES-DOSSIERS-DES-ARTICLES-EN-REDACTION/NOUVELS-AXES-DE-RECHERCHE-A-REGARDER-URGEMMENT/ARTICLES-EN-REDACTIONS/ARTICLE_MVOTO/Paper2_JCIM/solvatochromic_tddft/opt_gap_geometries/23424/23424_opt E -1899.596957670550
  O      -2.555308     -5.702732     -0.382566
  N      -1.909829     -5.054830     -1.205149
  C      -1.453506     -3.785196     -0.754503
  C      -0.703910     -3.035596     -1.667611
  C      -0.199290     -1.791250     -1.320167
  C      -0.439189     -1.251197     -0.032442
  C      -1.234276     -2.010139      0.872919
  C      -1.720758     -3.251627      0.519009
  N       0.080474     -0.011520      0.333407
  C       0.743126      0.849316     -0.638116
  C       2.228076      0.509590     -0.841630
  O       2.784610      1.572075     -1.654068
  S       3.749335      1.194572     -2.933864
  O       3.649925      2.331717     -3.832230
  O       3.443115     -0.162704     -3.379905
  C       5.372945      1.202922     -2.158039
  C       0.182927      0.420496      1.722101
  C      -0.843047      1.478471      2.136928
  O      -2.152434      0.863743      2.187800
  S      -3.429678      1.587809      1.436427
  O      -4.286156      0.500677      0.997463
  O      -2.926415      2.596371      0.505702
  C      -4.207727      2.420205      2.828842
  H      -0.517448     -3.462066     -2.649377
  H       0.393140     -1.247874     -2.046041
  H      -1.510597     -1.583896      1.828717
  H      -2.334117     -3.835815      1.197779
  H       0.220895      0.809571     -1.597443
  H       0.670682      1.886429     -0.293764
  H       2.354710     -0.450669     -1.345165
  H       2.767595      0.489427      0.113327
  H       5.411085      0.418065     -1.399422
  H       6.105965      1.003091     -2.943323
  H       5.543565      2.187158     -1.718676
  H       0.102114     -0.443758      2.385420
  H       1.182582      0.844688      1.893800
  H      -0.862129      2.313980      1.432494
  H      -0.609797      1.854477      3.140941
  H      -4.471589      1.672753      3.578942
  H      -3.514262      3.160311      3.233756
  H      -5.105403      2.912957      2.447727
41
Coordinates from ORCA-job /home/tchapet/Post-Doc/ARTICLES-DOSSIERS-DES-ARTICLES-EN-REDACTION/NOUVELS-AXES-DE-RECHERCHE-A-REGARDER-URGEMMENT/ARTICLES-EN-REDACTIONS/ARTICLE_MVOTO/Paper2_JCIM/solvatochromic_tddft/opt_gap_geometries/23424/23424_opt E -1899.597161298712
  O      -2.543441     -5.675782     -0.422214
  N      -1.896484     -5.014210     -1.232826
  C      -1.437267     -3.754387     -0.759088
  C      -0.686454     -2.989212     -1.658369
  C      -0.179538     -1.752408     -1.288449
  C      -0.417724     -1.235466      0.009251
  C      -1.213535     -2.009938      0.900804
  C      -1.702488     -3.243804      0.524190
  N       0.102578     -0.002502      0.395724
  C       0.767347      0.872266     -0.562042
  C       2.249552      0.527202     -0.776469
  O       2.816512      1.600710     -1.567688
  S       3.671158      1.245146     -2.929039
  O       3.583402      2.437794     -3.753817
  O       3.253382     -0.063249     -3.428459
  C       5.338994      1.113114     -2.266772
  C       0.193751      0.414525      1.789967
  C      -0.836951      1.467831      2.203880
  O      -2.147478      0.853944      2.236935
  S      -3.394501      1.525635      1.392509
  O      -4.223184      0.408733      0.974891
  O      -2.857710      2.488388      0.432159
  C      -4.239342      2.423981      2.702626
  H      -0.501572     -3.397104     -2.648296
  H       0.411979     -1.196995     -2.006017
  H      -1.488433     -1.602598      1.865204
  H      -2.316608     -3.839201      1.192460
  H       0.241485      0.854484     -1.520302
  H       0.703759      1.902968     -0.197919
  H       2.366805     -0.423633     -1.299554
  H       2.792059      0.485965      0.175612
  H       5.377759      0.283459     -1.557444
  H       6.006359      0.919055     -3.109880
  H       5.597592      2.057507     -1.785031
  H       0.105245     -0.455706      2.444098
  H       1.192253      0.836191      1.975086
  H      -0.848615      2.309131      1.506107
  H      -0.617305      1.834279      3.214122
  H      -4.533386      1.715365      3.478808
  H      -3.568632      3.189174      3.099113
  H      -5.121326      2.889351      2.256128
41
Coordinates from ORCA-job /home/tchapet/Post-Doc/ARTICLES-DOSSIERS-DES-ARTICLES-EN-REDACTION/NOUVELS-AXES-DE-RECHERCHE-A-REGARDER-URGEMMENT/ARTICLES-EN-REDACTIONS/ARTICLE_MVOTO/Paper2_JCIM/solvatochromic_tddft/opt_gap_geometries/23424/23424_opt E -1899.597388683353
  O      -2.559445     -5.642104     -0.456533
  N      -1.913116     -4.971343     -1.260500
  C      -1.439002     -3.725882     -0.767074
  C      -0.689620     -2.947094     -1.657780
  C      -0.170915     -1.721352     -1.269816
  C      -0.393408     -1.225928      0.040047
  C      -1.182319     -2.013800      0.923713
  C      -1.684663     -3.237670      0.527382
  N       0.129290     -0.000286      0.440368
  C       0.781764      0.890486     -0.511380
  C       2.261418      0.544074     -0.735800
  O       2.835575      1.607396     -1.533911
  S       3.630441      1.243457     -2.929018
  O       3.535648      2.446790     -3.739625
  O       3.166197     -0.055390     -3.416225
  C       5.319538      1.072325     -2.332504
  C       0.202904      0.410546      1.837636
  C      -0.839188      1.454121      2.239228
  O      -2.147880      0.842848      2.257523
  S      -3.372395      1.491804      1.359589
  O      -4.185894      0.361889      0.941629
  O      -2.806038      2.437100      0.397584
  C      -4.259539      2.411508      2.626747
  H      -0.513747     -3.329713     -2.659304
  H       0.415018     -1.160825     -1.988449
  H      -1.446656     -1.634414      1.902520
  H      -2.294365     -3.837106      1.196023
  H       0.249842      0.882341     -1.466746
  H       0.719281      1.916149     -0.134406
  H       2.369413     -0.410505     -1.253548
  H       2.807187      0.505601      0.213868
  H       5.370951      0.239096     -1.628217
  H       5.951752      0.870058     -3.200262
  H       5.613921      2.008698     -1.855739
  H       0.126774     -0.461206      2.490220
  H       1.191697      0.854505      2.028274
  H      -0.840613      2.293409      1.538694
  H      -0.629256      1.824020      3.250334
  H      -4.572872      1.716175      3.407652
  H      -3.605917      3.187630      3.030096
  H      -5.131762      2.862593      2.147712
41
Coordinates from ORCA-job /home/tchapet/Post-Doc/ARTICLES-DOSSIERS-DES-ARTICLES-EN-REDACTION/NOUVELS-AXES-DE-RECHERCHE-A-REGARDER-URGEMMENT/ARTICLES-EN-REDACTIONS/ARTICLE_MVOTO/Paper2_JCIM/solvatochromic_tddft/opt_gap_geometries/23424/23424_opt E -1899.597702423336
  O      -2.539883     -5.625641     -0.490793
  N      -1.890538     -4.944250     -1.283505
  C      -1.419069     -3.705433     -0.772067
  C      -0.666161     -2.914217     -1.649059
  C      -0.149111     -1.693623     -1.243221
  C      -0.376632     -1.214894      0.072421
  C      -1.168341     -2.015037      0.942013
  C      -1.669193     -3.233649      0.527432
  N       0.146226      0.004257      0.491453
  C       0.802734      0.907073     -0.446201
  C       2.282254      0.559378     -0.669061
  O       2.869187      1.626792     -1.452536
  S       3.554158      1.290154     -2.910840
  O       3.476033      2.535052     -3.657666
  O       2.988597      0.042805     -3.425137
  C       5.264870      1.001014     -2.433742
  C       0.207970      0.399303      1.893775
  C      -0.835838      1.440313      2.299267
  O      -2.149512      0.840341      2.295202
  S      -3.332936      1.451850      1.318726
  O      -4.129456      0.305986      0.912259
  O      -2.723713      2.357654      0.345051
  C      -4.272203      2.421219      2.508878
  H      -0.484863     -3.281824     -2.655230
  H       0.439944     -1.126119     -1.953770
  H      -1.437206     -1.652198      1.925904
  H      -2.280761     -3.840649      1.187473
  H       0.273072      0.912894     -1.402723
  H       0.741766      1.927668     -0.055746
  H       2.387348     -0.391286     -1.194668
  H       2.824857      0.512212      0.281715
  H       5.313785      0.133006     -1.772689
  H       5.829906      0.808671     -3.348806
  H       5.639819      1.895989     -1.934412
  H       0.125952     -0.480216      2.534922
  H       1.195772      0.839892      2.096987
  H      -0.822499      2.290415      1.611905
  H      -0.638596      1.792625      3.318942
  H      -4.619878      1.757498      3.302571
  H      -3.635334      3.212415      2.909619
  H      -5.122528      2.852559      1.975355
41
Coordinates from ORCA-job /home/tchapet/Post-Doc/ARTICLES-DOSSIERS-DES-ARTICLES-EN-REDACTION/NOUVELS-AXES-DE-RECHERCHE-A-REGARDER-URGEMMENT/ARTICLES-EN-REDACTIONS/ARTICLE_MVOTO/Paper2_JCIM/solvatochromic_tddft/opt_gap_geometries/23424/23424_opt E -1899.598159827014
  O      -2.521428     -5.600790     -0.541155
  N      -1.866019     -4.904101     -1.315659
  C      -1.394468     -3.678093     -0.775548
  C      -0.635075     -2.869348     -1.631055
  C      -0.117353     -1.658969     -1.196771
  C      -0.350033     -1.207957      0.128044
  C      -1.148122     -2.025008      0.975695
  C      -1.649758     -3.233261      0.532301
  N       0.173585      0.000711      0.574494
  C       0.836435      0.920268     -0.342465
  C       2.314868      0.569684     -0.567860
  O       2.920196      1.646519     -1.324625
  S       3.432686      1.378128     -2.864858
  O       3.391191      2.682418     -3.506049
  O       2.715170      0.224885     -3.409718
  C       5.149384      0.917016     -2.586397
  C       0.217352      0.374942      1.983234
  C      -0.824980      1.418648      2.385485
  O      -2.147458      0.840413      2.343197
  S      -3.255044      1.390355      1.248248
  O      -4.032720      0.223788      0.864235
  O      -2.571869      2.226967      0.261391
  C      -4.264699      2.441497      2.303707
  H      -0.449168     -3.213827     -2.644547
  H       0.474965     -1.078631     -1.894293
  H      -1.422083     -1.685744      1.966620
  H      -2.266143     -3.851716      1.177026
  H       0.308928      0.948713     -1.299986
  H       0.780009      1.932625      0.068861
  H       2.413270     -0.371820     -1.110887
  H       2.855626      0.502899      0.381943
  H       5.185854     -0.003878     -2.000336
  H       5.607364      0.757771     -3.565370
  H       5.645002      1.735102     -2.061097
  H       0.117966     -0.512697      2.610089
  H       1.205421      0.804863      2.208156
  H      -0.783830      2.281556      1.715214
  H      -0.650738      1.747515      3.416578
  H      -4.673468      1.833777      3.113096
  H      -3.649086      3.253487      2.695827
  H      -5.071730      2.841295      1.685235
41
Coordinates from ORCA-job /home/tchapet/Post-Doc/ARTICLES-DOSSIERS-DES-ARTICLES-EN-REDACTION/NOUVELS-AXES-DE-RECHERCHE-A-REGARDER-URGEMMENT/ARTICLES-EN-REDACTIONS/ARTICLE_MVOTO/Paper2_JCIM/solvatochromic_tddft/opt_gap_geometries/23424/23424_opt E -1899.598928644021
  O      -2.387827     -5.647627     -0.603410
  N      -1.751534     -4.911177     -1.357040
  C      -1.308662     -3.690576     -0.781067
  C      -0.571253     -2.838797     -1.611197
  C      -0.078319     -1.630546     -1.140527
  C      -0.313717     -1.228695      0.198301
  C      -1.095883     -2.088916      1.020484
  C      -1.572431     -3.291791      0.541426
  N       0.214709     -0.035555      0.683534
  C       0.887043      0.907820     -0.202173
  C       2.368289      0.564430     -0.421628
  O       2.987308      1.646661     -1.160656
  S       3.236536      1.465087     -2.774560
  O       3.231682      2.810656     -3.320757
  O       2.332398      0.432047     -3.277934
  C       4.918710      0.828646     -2.798183
  C       0.203940      0.323824      2.095329
  C      -0.840439      1.378604      2.485741
  O      -2.181162      0.869643      2.304987
  S      -3.123128      1.490920      1.099162
  O      -3.862508      0.368399      0.552871
  O      -2.302041      2.357672      0.254788
  C      -4.246368      2.514547      2.060923
  H      -0.382922     -3.148490     -2.635530
  H       0.497240     -1.012397     -1.819275
  H      -1.372703     -1.788011      2.022638
  H      -2.173688     -3.943456      1.167307
  H       0.368986      0.961068     -1.163957
  H       0.822731      1.909044      0.234303
  H       2.467852     -0.380344     -0.959912
  H       2.913034      0.499418      0.524769
  H       4.942226     -0.139015     -2.292114
  H       5.206096      0.712201     -3.845653
  H       5.568602      1.549968     -2.300141
  H       0.062544     -0.575772      2.696191
  H       1.190680      0.722115      2.372303
  H      -0.710639      2.289698      1.895046
  H      -0.749341      1.619487      3.550133
  H      -4.764222      1.877238      2.780066
  H      -3.673805      3.295348      2.565333
  H      -4.958011      2.956623      1.360078
41
Coordinates from ORCA-job /home/tchapet/Post-Doc/ARTICLES-DOSSIERS-DES-ARTICLES-EN-REDACTION/NOUVELS-AXES-DE-RECHERCHE-A-REGARDER-URGEMMENT/ARTICLES-EN-REDACTIONS/ARTICLE_MVOTO/Paper2_JCIM/solvatochromic_tddft/opt_gap_geometries/23424/23424_opt E -1899.598725064176
  O      -2.393890     -5.586562     -0.659201
  N      -1.727901     -4.849247     -1.386525
  C      -1.281831     -3.644285     -0.782546
  C      -0.514298     -2.789197     -1.583243
  C      -0.015267     -1.595284     -1.084568
  C      -0.277044     -1.209465      0.255024
  C      -1.087380     -2.070625      1.046344
  C      -1.569463     -3.260670      0.538582
  N       0.250485     -0.029747      0.770767
  C       0.958006      0.916440     -0.084680
  C       2.440822      0.553391     -0.254469
  O       3.127151      1.610364     -0.971256
  S       3.076596      1.610021     -2.612166
  O       3.206209      3.003268     -3.003681
  O       1.946287      0.787659     -3.046160
  C       4.605018      0.745896     -3.004499
  C       0.221165      0.297817      2.189674
  C      -0.815409      1.356321      2.582920
  O      -2.163858      0.891049      2.357158
  S      -2.975705      1.373894      1.000653
  O      -3.678462      0.199316      0.515505
  O      -2.065633      2.140682      0.149179
  C      -4.170619      2.501347      1.734209
  H      -0.306618     -3.081862     -2.608831
  H       0.580506     -0.976130     -1.745135
  H      -1.385467     -1.783633      2.047022
  H      -2.192651     -3.910777      1.144316
  H       0.473973      0.978641     -1.061833
  H       0.889526      1.915992      0.354344
  H       2.540294     -0.400786     -0.777307
  H       2.956613      0.492986      0.707098
  H       4.552536     -0.272943     -2.614689
  H       4.697155      0.727889     -4.092972
  H       5.435751      1.295246     -2.558621
  H       0.065136     -0.612151      2.771386
  H       1.205240      0.689065      2.488955
  H      -0.645877      2.282333      2.027623
  H      -0.751226      1.558870      3.657092
  H      -4.757426      1.950531      2.471498
  H      -3.639288      3.335296      2.196755
  H      -4.813158      2.859049      0.926274
41
Coordinates from ORCA-job /home/tchapet/Post-Doc/ARTICLES-DOSSIERS-DES-ARTICLES-EN-REDACTION/NOUVELS-AXES-DE-RECHERCHE-A-REGARDER-URGEMMENT/ARTICLES-EN-REDACTIONS/ARTICLE_MVOTO/Paper2_JCIM/solvatochromic_tddft/opt_gap_geometries/23424/23424_opt E -1899.599472352171
  O      -2.359475     -5.638875     -0.588088
  N      -1.688863     -4.930942     -1.339528
  C      -1.274502     -3.686851     -0.791560
  C      -0.502354     -2.866242     -1.622701
  C      -0.028447     -1.640573     -1.178437
  C      -0.326943     -1.190224      0.131970
  C      -1.145417     -2.015537      0.951957
  C      -1.600121     -3.238356      0.500226
  N       0.174764      0.019733      0.604918
  C       0.894257      0.937156     -0.271259
  C       2.391787      0.602279     -0.357765
  O       3.097162      1.635189     -1.091622
  S       3.252374      1.458898     -2.716873
  O       3.302905      2.807674     -3.254154
  O       2.273048      0.475158     -3.179099
  C       4.893978      0.727981     -2.823487
  C       0.199034      0.347127      2.022759
  C      -0.829167      1.390069      2.477927
  O      -2.181876      0.902992      2.338355
  S      -3.146163      1.521129      1.144771
  O      -3.840363      0.388666      0.558202
  O      -2.363173      2.457240      0.338345
  C      -4.312372      2.454472      2.148614
  H      -0.269384     -3.215163     -2.625026
  H       0.577242     -1.044647     -1.850889
  H      -1.469200     -1.666043      1.924835
  H      -2.228342     -3.865240      1.124925
  H       0.455029      0.925871     -1.267783
  H       0.775984      1.958921      0.103599
  H       2.541526     -0.379171     -0.817759
  H       2.865714      0.601242      0.628004
  H       4.887732     -0.242920     -2.323912
  H       5.120706      0.603045     -3.885241
  H       5.607303      1.410861     -2.358776
  H       0.089475     -0.569070      2.608184
  H       1.186761      0.758145      2.280002
  H      -0.709218      2.322336      1.921632
  H      -0.692075      1.589353      3.546959
  H      -4.782148      1.767499      2.854260
  H      -3.779604      3.254441      2.666343
  H      -5.057573      2.872377      1.467172
41
Coordinates from ORCA-job /home/tchapet/Post-Doc/ARTICLES-DOSSIERS-DES-ARTICLES-EN-REDACTION/NOUVELS-AXES-DE-RECHERCHE-A-REGARDER-URGEMMENT/ARTICLES-EN-REDACTIONS/ARTICLE_MVOTO/Paper2_JCIM/solvatochromic_tddft/opt_gap_geometries/23424/23424_opt E -1899.599521542121
  O      -2.482222     -5.569647     -0.615014
  N      -1.817954     -4.851861     -1.363029
  C      -1.350443     -3.642948     -0.784749
  C      -0.583552     -2.809934     -1.609001
  C      -0.067298     -1.613104     -1.137059
  C      -0.309053     -1.200862      0.199360
  C      -1.119379     -2.040459      1.014629
  C      -1.618005     -3.234362      0.533082
  N       0.225914     -0.012925      0.685909
  C       0.912150      0.926445     -0.196047
  C       2.397999      0.575750     -0.369363
  O       3.067590      1.608222     -1.138542
  S       3.231095      1.405297     -2.763637
  O       3.162006      2.740145     -3.334617
  O       2.337288      0.332484     -3.202269
  C       4.929136      0.816972     -2.856114
  C       0.225957      0.338918      2.100595
  C      -0.809865      1.392185      2.503185
  O      -2.153353      0.895712      2.319725
  S      -3.080558      1.492400      1.086194
  O      -3.720088      0.345496      0.463408
  O      -2.284687      2.445997      0.312656
  C      -4.308634      2.394053      2.043135
  H      -0.392205     -3.125066     -2.631140
  H       0.523950     -1.008551     -1.814174
  H      -1.403573     -1.730971      2.012199
  H      -2.242160     -3.868846      1.154203
  H       0.417011      0.968653     -1.168908
  H       0.836473      1.931153      0.229964
  H       2.520036     -0.400693     -0.843335
  H       2.915615      0.565509      0.594404
  H       5.009176     -0.130873     -2.319976
  H       5.165557      0.673341     -3.912978
  H       5.581165      1.573871     -2.417119
  H       0.097963     -0.559847      2.705910
  H       1.211165      0.751043      2.366161
  H      -0.674874      2.313753      1.931212
  H      -0.706842      1.616224      3.571014
  H      -4.801716      1.693865      2.719729
  H      -3.812442      3.193556      2.596243
  H      -5.028339      2.809904      1.334155
41
Coordinates from ORCA-job /home/tchapet/Post-Doc/ARTICLES-DOSSIERS-DES-ARTICLES-EN-REDACTION/NOUVELS-AXES-DE-RECHERCHE-A-REGARDER-URGEMMENT/ARTICLES-EN-REDACTIONS/ARTICLE_MVOTO/Paper2_JCIM/solvatochromic_tddft/opt_gap_geometries/23424/23424_opt E -1899.599729601888
  O      -2.448734     -5.595188     -0.603088
  N      -1.769856     -4.888334     -1.348223
  C      -1.323389     -3.665009     -0.782432
  C      -0.539442     -2.845849     -1.604317
  C      -0.039123     -1.637809     -1.143155
  C      -0.317250     -1.202781      0.177972
  C      -1.146294     -2.027250      0.989579
  C      -1.628317     -3.232343      0.519766
  N       0.202634     -0.004965      0.659467
  C       0.909170      0.922559     -0.217937
  C       2.399982      0.575258     -0.347826
  O       3.093457      1.602968     -1.101831
  S       3.219219      1.428196     -2.733323
  O       3.170014      2.773731     -3.281133
  O       2.291657      0.384200     -3.171605
  C       4.900457      0.801179     -2.870599
  C       0.218311      0.333837      2.076681
  C      -0.802090      1.394312      2.501451
  O      -2.154685      0.919603      2.326294
  S      -3.076652      1.532706      1.096926
  O      -3.705011      0.395332      0.445928
  O      -2.281616      2.506792      0.348265
  C      -4.316925      2.407043      2.063444
  H      -0.321140     -3.183427     -2.613816
  H       0.571388     -1.043221     -1.812320
  H      -1.456790     -1.691482      1.970975
  H      -2.266599     -3.858052      1.135446
  H       0.440356      0.942449     -1.204162
  H       0.815800      1.934901      0.186850
  H       2.536347     -0.404736     -0.810826
  H       2.894752      0.572578      0.627800
  H       4.966447     -0.158970     -2.354956
  H       5.111585      0.673139     -3.934840
  H       5.579641      1.533468     -2.431020
  H       0.085104     -0.570901      2.672536
  H       1.209994      0.731797      2.340297
  H      -0.661792      2.322736      1.941914
  H      -0.687723      1.601189      3.571448
  H      -4.803235      1.691232      2.728374
  H      -3.830577      3.204544      2.628046
  H      -5.039078      2.824567      1.357948
41
Coordinates from ORCA-job /home/tchapet/Post-Doc/ARTICLES-DOSSIERS-DES-ARTICLES-EN-REDACTION/NOUVELS-AXES-DE-RECHERCHE-A-REGARDER-URGEMMENT/ARTICLES-EN-REDACTIONS/ARTICLE_MVOTO/Paper2_JCIM/solvatochromic_tddft/opt_gap_geometries/23424/23424_opt E -1899.599838215177
  O      -2.452759     -5.593709     -0.594167
  N      -1.768078     -4.890682     -1.337660
  C      -1.324349     -3.664947     -0.774367
  C      -0.534730     -2.850408     -1.595639
  C      -0.035564     -1.641045     -1.136559
  C      -0.322494     -1.201242      0.180530
  C      -1.157426     -2.020235      0.991166
  C      -1.637786     -3.226868      0.524039
  N       0.195535     -0.002100      0.662651
  C       0.917922      0.916686     -0.210542
  C       2.406881      0.557262     -0.323263
  O       3.122923      1.573216     -1.072192
  S       3.196977      1.429313     -2.710451
  O       3.122491      2.782795     -3.236031
  O       2.262432      0.386498     -3.137004
  C       4.876961      0.814992     -2.906955
  C       0.219510      0.326725      2.081761
  C      -0.787571      1.396247      2.515064
  O      -2.146448      0.944656      2.328717
  S      -3.039761      1.563480      1.080906
  O      -3.624544      0.431050      0.381725
  O      -2.240436      2.569458      0.380174
  C      -4.326520      2.389071      2.028935
  H      -0.311530     -3.194308     -2.601935
  H       0.581050     -1.048823     -1.802468
  H      -1.472354     -1.676265      1.968484
  H      -2.280134     -3.850910      1.137257
  H       0.459027      0.933842     -1.200959
  H       0.826888      1.931576      0.188697
  H       2.542036     -0.426971     -0.778130
  H       2.891513      0.557650      0.657406
  H       4.962211     -0.152961     -2.409151
  H       5.057262      0.706149     -3.979033
  H       5.565034      1.543493     -2.474905
  H       0.075704     -0.580430      2.671515
  H       1.216696      0.710511      2.346302
  H      -0.633902      2.330275      1.968626
  H      -0.675903      1.588287      3.588093
  H      -4.812561      1.649779      2.667846
  H      -3.874590      3.187411      2.620264
  H      -5.039613      2.801483      1.311253
41
Coordinates from ORCA-job /home/tchapet/Post-Doc/ARTICLES-DOSSIERS-DES-ARTICLES-EN-REDACTION/NOUVELS-AXES-DE-RECHERCHE-A-REGARDER-URGEMMENT/ARTICLES-EN-REDACTIONS/ARTICLE_MVOTO/Paper2_JCIM/solvatochromic_tddft/opt_gap_geometries/23424/23424_opt E -1899.599976632854
  O      -2.500614     -5.588721     -0.565641
  N      -1.806869     -4.894105     -1.308815
  C      -1.354938     -3.670105     -0.748362
  C      -0.555214     -2.865678     -1.570199
  C      -0.047143     -1.659110     -1.113610
  C      -0.335814     -1.213310      0.200598
  C      -1.181138     -2.021100      1.011386
  C      -1.670106     -3.225179      0.547242
  N       0.188310     -0.015472      0.682282
  C       0.928755      0.891271     -0.188924
  C       2.411701      0.507500     -0.298568
  O       3.155584      1.510582     -1.037748
  S       3.160084      1.428325     -2.683532
  O       2.997381      2.791849     -3.162915
  O       2.258069      0.355145     -3.105917
  C       4.857850      0.903870     -2.965364
  C       0.226406      0.303351      2.103777
  C      -0.752796      1.395959      2.541885
  O      -2.122615      0.991837      2.329443
  S      -2.953933      1.618623      1.042436
  O      -3.453223      0.498105      0.260952
  O      -2.146629      2.675403      0.430307
  C      -4.324920      2.360508      1.938973
  H      -0.332290     -3.217238     -2.573894
  H       0.578241     -1.074055     -1.777626
  H      -1.495690     -1.667543      1.985477
  H      -2.319935     -3.843694      1.158299
  H       0.470094      0.915252     -1.179189
  H       0.853488      1.907045      0.211305
  H       2.535964     -0.477367     -0.754879
  H       2.891064      0.499353      0.684620
  H       5.006590     -0.074794     -2.504979
  H       5.001042      0.840997     -4.046704
  H       5.527716      1.648670     -2.532368
  H       0.057993     -0.602664      2.688220
  H       1.234369      0.658036      2.369112
  H      -0.567267      2.334860      2.013970
  H      -0.651943      1.568336      3.619166
  H      -4.814143      1.583239      2.528536
  H      -3.939428      3.157235      2.577449
  H      -5.014055      2.764784      1.193797
41
Coordinates from ORCA-job /home/tchapet/Post-Doc/ARTICLES-DOSSIERS-DES-ARTICLES-EN-REDACTION/NOUVELS-AXES-DE-RECHERCHE-A-REGARDER-URGEMMENT/ARTICLES-EN-REDACTIONS/ARTICLE_MVOTO/Paper2_JCIM/solvatochromic_tddft/opt_gap_geometries/23424/23424_opt E -1899.600078360743
  O      -2.569049     -5.579093     -0.529355
  N      -1.872191     -4.891679     -1.276431
  C      -1.404397     -3.672566     -0.718528
  C      -0.601553     -2.876088     -1.545285
  C      -0.078681     -1.674790     -1.091407
  C      -0.354890     -1.227040      0.224401
  C      -1.203142     -2.026318      1.040201
  C      -1.707137     -3.225239      0.579112
  N       0.182518     -0.033262      0.703911
  C       0.938271      0.859446     -0.169502
  C       2.412044      0.444471     -0.289776
  O       3.178129      1.434254     -1.023063
  S       3.135038      1.398852     -2.671296
  O       2.836394      2.752546     -3.113872
  O       2.319346      0.259468     -3.096755
  C       4.864652      1.037232     -3.006524
  C       0.233914      0.280044      2.126896
  C      -0.718952      1.394816      2.566166
  O      -2.097760      1.036661      2.330580
  S      -2.867609      1.669157      1.007217
  O      -3.282387      0.564689      0.155092
  O      -2.059418      2.769903      0.478535
  C      -4.312210      2.331494      1.846934
  H      -0.388866     -3.230202     -2.550280
  H       0.548541     -1.095767     -1.758937
  H      -1.507038     -1.669469      2.016547
  H      -2.358679     -3.839105      1.193144
  H       0.471132      0.895748     -1.155649
  H       0.887760      1.875074      0.234707
  H       2.516546     -0.538365     -0.754823
  H       2.893222      0.420808      0.692300
  H       5.109146      0.062051     -2.581188
  H       4.986904      1.022153     -4.092117
  H       5.476941      1.823738     -2.562023
  H       0.043607     -0.622638      2.709140
  H       1.251130      0.608405      2.391213
  H      -0.502086      2.335388      2.053209
  H      -0.629471      1.553153      3.646436
  H      -4.800189      1.520363      2.390130
  H      -3.992640      3.124238      2.525346
  H      -4.976890      2.727468      1.075595
41
Coordinates from ORCA-job /home/tchapet/Post-Doc/ARTICLES-DOSSIERS-DES-ARTICLES-EN-REDACTION/NOUVELS-AXES-DE-RECHERCHE-A-REGARDER-URGEMMENT/ARTICLES-EN-REDACTIONS/ARTICLE_MVOTO/Paper2_JCIM/solvatochromic_tddft/opt_gap_geometries/23424/23424_opt E -1899.600170653878
  O      -2.605958     -5.567024     -0.521518
  N      -1.905277     -4.885463     -1.270367
  C      -1.429007     -3.668697     -0.714650
  C      -0.621873     -2.878251     -1.542896
  C      -0.091633     -1.679305     -1.091251
  C      -0.363181     -1.227025      0.224197
  C      -1.215419     -2.020625      1.041396
  C      -1.727236     -3.217266      0.582515
  N       0.180089     -0.034353      0.700167
  C       0.942680      0.850196     -0.176343
  C       2.412978      0.422315     -0.298561
  O       3.184041      1.402671     -1.037693
  S       3.150432      1.345543     -2.685681
  O       2.763242      2.668475     -3.153077
  O       2.416517      0.147110     -3.097825
  C       4.903469      1.099654     -3.000870
  C       0.235702      0.281770      2.122937
  C      -0.711147      1.401528      2.563008
  O      -2.094266      1.051450      2.338899
  S      -2.865895      1.684191      1.015290
  O      -3.265177      0.586679      0.146477
  O      -2.068843      2.800034      0.501586
  C      -4.321242      2.315531      1.859545
  H      -0.411141     -3.233887     -2.547744
  H       0.538186     -1.106758     -1.761681
  H      -1.517498     -1.662595      2.017850
  H      -2.381847     -3.825396      1.198962
  H       0.472143      0.888352     -1.161315
  H       0.901905      1.867261      0.225287
  H       2.508225     -0.560955     -0.764004
  H       2.894959      0.396516      0.683052
  H       5.208854      0.146888     -2.564739
  H       5.037134      1.085270     -4.085062
  H       5.456583      1.929261     -2.557050
  H       0.044809     -0.619314      2.707443
  H       1.254637      0.607295      2.383646
  H      -0.492053      2.339713      2.046537
  H      -0.614538      1.564003      3.642019
  H      -4.797544      1.491053      2.392956
  H      -4.015199      3.105218      2.547565
  H      -4.990612      2.708936      1.090992
41
Coordinates from ORCA-job /home/tchapet/Post-Doc/ARTICLES-DOSSIERS-DES-ARTICLES-EN-REDACTION/NOUVELS-AXES-DE-RECHERCHE-A-REGARDER-URGEMMENT/ARTICLES-EN-REDACTIONS/ARTICLE_MVOTO/Paper2_JCIM/solvatochromic_tddft/opt_gap_geometries/23424/23424_opt E -1899.600265564308
  O      -2.703766     -5.546426     -0.497672
  N      -1.983656     -4.885937     -1.246955
  C      -1.486747     -3.674711     -0.697570
  C      -0.656720     -2.907726     -1.524726
  C      -0.106685     -1.715390     -1.078935
  C      -0.378952     -1.244471      0.230110
  C      -1.253852     -2.015145      1.045852
  C      -1.785641     -3.205479      0.593185
  N       0.180570     -0.057050      0.698613
  C       0.962335      0.808496     -0.180769
  C       2.427943      0.359361     -0.293817
  O       3.212669      1.321652     -1.040266
  S       3.160924      1.253204     -2.687759
  O       2.573556      2.495324     -3.170016
  O       2.610494     -0.045925     -3.080683
  C       4.928755      1.277012     -3.009066
  C       0.241335      0.266295      2.120101
  C      -0.679930      1.408340      2.557813
  O      -2.075405      1.098340      2.345943
  S      -2.827992      1.735804      1.010808
  O      -3.181806      0.655863      0.100821
  O      -2.046100      2.881954      0.542954
  C      -4.317682      2.302413      1.839792
  H      -0.442192     -3.274462     -2.524739
  H       0.540447     -1.165129     -1.751176
  H      -1.559169     -1.645971      2.017172
  H      -2.457810     -3.792843      1.210776
  H       0.493649      0.845718     -1.167619
  H       0.933813      1.829718      0.211105
  H       2.510857     -0.626103     -0.755721
  H       2.906897      0.333870      0.688951
  H       5.375105      0.378254     -2.580793
  H       5.057231      1.292473     -4.093750
  H       5.351632      2.177811     -2.560823
  H       0.034563     -0.628927      2.708257
  H       1.266260      0.572712      2.379889
  H      -0.437262      2.341097      2.041965
  H      -0.576409      1.570193      3.636137
  H      -4.777327      1.450021      2.343070
  H      -4.050247      3.083525      2.552886
  H      -4.983686      2.692244      1.066654
41
Coordinates from ORCA-job /home/tchapet/Post-Doc/ARTICLES-DOSSIERS-DES-ARTICLES-EN-REDACTION/NOUVELS-AXES-DE-RECHERCHE-A-REGARDER-URGEMMENT/ARTICLES-EN-REDACTIONS/ARTICLE_MVOTO/Paper2_JCIM/solvatochromic_tddft/opt_gap_geometries/23424/23424_opt E -1899.600354975167
  O      -2.788322     -5.515090     -0.488586
  N      -2.050247     -4.872379     -1.235750
  C      -1.533306     -3.668858     -0.687740
  C      -0.682535     -2.921615     -1.511431
  C      -0.112999     -1.738030     -1.066380
  C      -0.385359     -1.255075      0.238069
  C      -1.279505     -2.006843      1.050803
  C      -1.831227     -3.188500      0.599359
  N       0.192695     -0.077022      0.704950
  C       0.995418      0.770574     -0.172515
  C       2.454660      0.296560     -0.275338
  O       3.255566      1.236746     -1.031998
  S       3.167593      1.163206     -2.677963
  O       2.405209      2.309614     -3.154841
  O       2.787414     -0.199058     -3.058743
  C       4.909045      1.431412     -3.025952
  C       0.245915      0.253174      2.124768
  C      -0.658859      1.411438      2.554149
  O      -2.061453      1.129718      2.346153
  S      -2.794123      1.765327      0.997765
  O      -3.115687      0.693474      0.066285
  O      -2.017597      2.925812      0.557882
  C      -4.307783      2.297525      1.805719
  H      -0.465995     -3.295459     -2.508351
  H       0.550827     -1.205697     -1.736935
  H      -1.583839     -1.630672      2.019905
  H      -2.518101     -3.759229      1.216310
  H       0.532256      0.811753     -1.162088
  H       0.980653      1.794664      0.212865
  H       2.523228     -0.693821     -0.729620
  H       2.932412      0.273390      0.707785
  H       5.480558      0.594755     -2.621803
  H       5.011753      1.482913     -4.112211
  H       5.213319      2.374762     -2.569156
  H       0.022558     -0.636847      2.715020
  H       1.273075      0.545517      2.391681
  H      -0.397513      2.339619      2.038844
  H      -0.555414      1.573036      3.632500
  H      -4.760296      1.430746      2.290473
  H      -4.067824      3.075225      2.532009
  H      -4.966168      2.683237      1.024108
41
Coordinates from ORCA-job /home/tchapet/Post-Doc/ARTICLES-DOSSIERS-DES-ARTICLES-EN-REDACTION/NOUVELS-AXES-DE-RECHERCHE-A-REGARDER-URGEMMENT/ARTICLES-EN-REDACTIONS/ARTICLE_MVOTO/Paper2_JCIM/solvatochromic_tddft/opt_gap_geometries/23424/23424_opt E -1899.600430906151
  O      -2.860771     -5.495563     -0.482324
  N      -2.100658     -4.874590     -1.225621
  C      -1.567903     -3.675716     -0.682051
  C      -0.691887     -2.953169     -1.500873
  C      -0.106137     -1.776229     -1.058988
  C      -0.387501     -1.274514      0.236108
  C      -1.305419     -2.002482      1.044432
  C      -1.873412     -3.177717      0.596827
  N       0.206047     -0.104330      0.700076
  C       1.023540      0.729792     -0.175066
  C       2.481395      0.245606     -0.258834
  O       3.293955      1.173108     -1.020001
  S       3.186072      1.085019     -2.663742
  O       2.272645      2.117421     -3.139570
  O       2.977094     -0.315638     -3.037579
  C       4.873779      1.580776     -3.023287
  C       0.247924      0.236728      2.116692
  C      -0.643492      1.409117      2.533615
  O      -2.050433      1.141870      2.334146
  S      -2.783690      1.781675      0.988497
  O      -3.121467      0.709463      0.063247
  O      -1.995075      2.930818      0.541328
  C      -4.288168      2.333254      1.801987
  H      -0.467556     -3.340867     -2.490728
  H       0.579338     -1.264784     -1.724128
  H      -1.613879     -1.611537      2.006440
  H      -2.578713     -3.728771      1.210794
  H       0.572444      0.768848     -1.170208
  H       1.010369      1.757628      0.200802
  H       2.548677     -0.749685     -0.704320
  H       2.953586      0.227144      0.726805
  H       5.554476      0.820614     -2.637819
  H       4.953227      1.659837     -4.109818
  H       5.055839      2.550933     -2.557888
  H       0.008406     -0.646254      2.711524
  H       1.275797      0.518846      2.392570
  H      -0.372626      2.329829      2.009782
  H      -0.535692      1.576972      3.610735
  H      -4.748504      1.470842      2.287033
  H      -4.037382      3.108735      2.526994
  H      -4.944245      2.726972      1.022409
41
Coordinates from ORCA-job /home/tchapet/Post-Doc/ARTICLES-DOSSIERS-DES-ARTICLES-EN-REDACTION/NOUVELS-AXES-DE-RECHERCHE-A-REGARDER-URGEMMENT/ARTICLES-EN-REDACTIONS/ARTICLE_MVOTO/Paper2_JCIM/solvatochromic_tddft/opt_gap_geometries/23424/23424_opt E -1899.600504261071
  O      -2.821899     -5.513177     -0.495604
  N      -2.064863     -4.886067     -1.236871
  C      -1.541597     -3.683652     -0.691497
  C      -0.669521     -2.954568     -1.508903
  C      -0.092298     -1.774305     -1.064886
  C      -0.379913     -1.276408      0.230127
  C      -1.293826     -2.010718      1.037182
  C      -1.852962     -3.189299      0.587428
  N       0.208271     -0.104927      0.697268
  C       1.014103      0.740315     -0.176860
  C       2.477793      0.274196     -0.257787
  O       3.283487      1.213058     -1.015321
  S       3.174434      1.128508     -2.658445
  O       2.320555      2.213039     -3.129542
  O       2.882949     -0.256576     -3.034280
  C       4.887998      1.523759     -3.022883
  C       0.240838      0.238009      2.112838
  C      -0.664845      1.400606      2.525864
  O      -2.065868      1.106950      2.325572
  S      -2.821220      1.743680      0.993322
  O      -3.220633      0.652774      0.116439
  O      -2.009741      2.853252      0.490807
  C      -4.282011      2.375935      1.829257
  H      -0.442131     -3.340846     -2.498626
  H       0.591340     -1.255544     -1.726496
  H      -1.604882     -1.620353      1.998524
  H      -2.555346     -3.746311      1.199345
  H       0.567598      0.775864     -1.173294
  H       0.987358      1.767678      0.199934
  H       2.558562     -0.722047     -0.700527
  H       2.949399      0.259472      0.728232
  H       5.526043      0.728666     -2.634399
  H       4.970114      1.590460     -4.110178
  H       5.125011      2.485505     -2.564896
  H       0.007545     -0.646170      2.708597
  H       1.264692      0.531796      2.392175
  H      -0.408948      2.321439      1.995054
  H      -0.557478      1.573594      3.602355
  H      -4.764856      1.545094      2.346437
  H      -3.982229      3.158503      2.527819
  H      -4.941026      2.778818      1.056718
41
Coordinates from ORCA-job /home/tchapet/Post-Doc/ARTICLES-DOSSIERS-DES-ARTICLES-EN-REDACTION/NOUVELS-AXES-DE-RECHERCHE-A-REGARDER-URGEMMENT/ARTICLES-EN-REDACTIONS/ARTICLE_MVOTO/Paper2_JCIM/solvatochromic_tddft/opt_gap_geometries/23424/23424_opt E -1899.600560909060
  O      -2.836957     -5.522306     -0.483004
  N      -2.074021     -4.900788     -1.223125
  C      -1.550270     -3.697047     -0.681237
  C      -0.671557     -2.975000     -1.498357
  C      -0.092882     -1.794567     -1.057120
  C      -0.386263     -1.290218      0.234054
  C      -1.307447     -2.016184      1.039967
  C      -1.867609     -3.195447      0.593113
  N       0.203660     -0.117300      0.699241
  C       1.013584      0.722373     -0.176900
  C       2.474962      0.249119     -0.251388
  O       3.297783      1.181201     -1.000493
  S       3.161336      1.137383     -2.644179
  O       2.272722      2.211956     -3.074702
  O       2.897397     -0.244113     -3.052940
  C       4.859560      1.583092     -3.021498
  C       0.242959      0.223617      2.115569
  C      -0.651347      1.394872      2.528442
  O      -2.052888      1.112955      2.318892
  S      -2.793601      1.744427      0.976771
  O      -3.199148      0.646154      0.111438
  O      -1.968619      2.840804      0.466313
  C      -4.251943      2.403561      1.795886
  H      -0.440928     -3.368399     -2.484498
  H       0.596969     -1.280382     -1.715794
  H      -1.622836     -1.616348      1.995863
  H      -2.575512     -3.748128      1.202643
  H       0.568973      0.756079     -1.174323
  H       0.990625      1.751147      0.196222
  H       2.556206     -0.747563     -0.691865
  H       2.939412      0.232013      0.738141
  H       5.521894      0.794748     -2.661480
  H       4.925168      1.679134     -4.107850
  H       5.079496      2.538378     -2.541801
  H       0.000612     -0.657702      2.711672
  H       1.270390      0.507227      2.393269
  H      -0.387654      2.313346      1.997863
  H      -0.545557      1.566334      3.605288
  H      -4.748335      1.585654      2.320909
  H      -3.946574      3.191171      2.486397
  H      -4.901760      2.804747      1.014601
41
Coordinates from ORCA-job /home/tchapet/Post-Doc/ARTICLES-DOSSIERS-DES-ARTICLES-EN-REDACTION/NOUVELS-AXES-DE-RECHERCHE-A-REGARDER-URGEMMENT/ARTICLES-EN-REDACTIONS/ARTICLE_MVOTO/Paper2_JCIM/solvatochromic_tddft/opt_gap_geometries/23424/23424_opt E -1899.600582395576
  O      -2.824608     -5.535690     -0.487925
  N      -2.065275     -4.909305     -1.227601
  C      -1.543625     -3.706101     -0.682510
  C      -0.668495     -2.978882     -1.498948
  C      -0.092022     -1.798556     -1.054564
  C      -0.383809     -1.300099      0.239330
  C      -1.301645     -2.030917      1.044320
  C      -1.859667     -3.209953      0.594182
  N       0.205551     -0.127296      0.707652
  C       1.015719      0.713934     -0.167168
  C       2.475232      0.236513     -0.244282
  O       3.301364      1.164796     -0.994007
  S       3.148030      1.129499     -2.636572
  O       2.233297      2.187716     -3.053052
  O       2.907677     -0.254593     -3.050953
  C       4.833529      1.611101     -3.025488
  C       0.238737      0.213803      2.124138
  C      -0.657434      1.386368      2.531123
  O      -2.056759      1.106259      2.305550
  S      -2.784721      1.749655      0.962471
  O      -3.211745      0.656943      0.100808
  O      -1.939115      2.828873      0.449083
  C      -4.229506      2.441782      1.777780
  H      -0.439525     -3.368205     -2.487084
  H       0.594811     -1.279732     -1.712679
  H      -1.616287     -1.635069      2.002089
  H      -2.564946     -3.767074      1.202751
  H       0.567903      0.751910     -1.163308
  H       0.996238      1.741442      0.209204
  H       2.554182     -0.760203     -0.684669
  H       2.939483      0.218990      0.745483
  H       5.514247      0.834694     -2.673967
  H       4.888570      1.713117     -4.111847
  H       5.038654      2.568197     -2.542735
  H      -0.008476     -0.667106      2.718734
  H       1.265406      0.495052      2.406435
  H      -0.387517      2.304637      2.003213
  H      -0.561554      1.557409      3.608895
  H      -4.744741      1.636917      2.304862
  H      -3.907757      3.224278      2.466716
  H      -4.869402      2.854895      0.994540
41
Coordinates from ORCA-job /home/tchapet/Post-Doc/ARTICLES-DOSSIERS-DES-ARTICLES-EN-REDACTION/NOUVELS-AXES-DE-RECHERCHE-A-REGARDER-URGEMMENT/ARTICLES-EN-REDACTIONS/ARTICLE_MVOTO/Paper2_JCIM/solvatochromic_tddft/opt_gap_geometries/23424/23424_opt E -1899.600592408074
  O      -2.818212     -5.533908     -0.493374
  N      -2.061066     -4.905006     -1.233069
  C      -1.540262     -3.702285     -0.686239
  C      -0.666736     -2.972496     -1.502265
  C      -0.091122     -1.792384     -1.056446
  C      -0.381971     -1.296518      0.238981
  C      -1.298327     -2.029558      1.043246
  C      -1.855539     -3.208495      0.591370
  N       0.205464     -0.123090      0.708343
  C       1.015074      0.719365     -0.166321
  C       2.474120      0.240861     -0.244522
  O       3.301416      1.167541     -0.994060
  S       3.149375      1.131784     -2.636673
  O       2.242284      2.195707     -3.054359
  O       2.901064     -0.251577     -3.048893
  C       4.838217      1.601337     -3.025185
  C       0.239074      0.216927      2.125293
  C      -0.663441      1.385289      2.531140
  O      -2.060693      1.093901      2.307474
  S      -2.797043      1.727014      0.964188
  O      -3.245213      0.625686      0.124891
  O      -1.946843      2.790046      0.425269
  C      -4.225094      2.448310      1.783286
  H      -0.438485     -3.359437     -2.491510
  H       0.593728     -1.271947     -1.715215
  H      -1.613227     -1.636455      2.002051
  H      -2.559835     -3.767357      1.199514
  H       0.563894      0.758466     -1.160875
  H       0.996896      1.746209      0.211510
  H       2.552573     -0.755519     -0.685670
  H       2.936403      0.223791      0.746204
  H       5.513248      0.822605     -2.667720
  H       4.896624      1.697131     -4.111829
  H       5.049291      2.559159     -2.546441
  H      -0.004117     -0.665384      2.719429
  H       1.264890      0.502300      2.406042
  H      -0.399396      2.302519      1.998371
  H      -0.566976      1.562438      3.607826
  H      -4.745696      1.658542      2.327644
  H      -3.886691      3.236205      2.457981
  H      -4.867652      2.858282      1.000612
41
Coordinates from ORCA-job /home/tchapet/Post-Doc/ARTICLES-DOSSIERS-DES-ARTICLES-EN-REDACTION/NOUVELS-AXES-DE-RECHERCHE-A-REGARDER-URGEMMENT/ARTICLES-EN-REDACTIONS/ARTICLE_MVOTO/Paper2_JCIM/solvatochromic_tddft/opt_gap_geometries/23424/23424_opt E -1899.600595663147
  O      -2.810294     -5.541732     -0.494256
  N      -2.054180     -4.911695     -1.234011
  C      -1.535834     -3.707681     -0.687591
  C      -0.662982     -2.976990     -1.503454
  C      -0.089406     -1.795697     -1.058133
  C      -0.381805     -1.299207      0.236819
  C      -1.297855     -2.033126      1.040755
  C      -1.852790     -3.213362      0.589393
  N       0.203019     -0.124477      0.705477
  C       1.011844      0.719135     -0.169157
  C       2.472095      0.243367     -0.245677
  O       3.299314      1.172111     -0.992556
  S       3.150043      1.137721     -2.635274
  O       2.247448      2.204913     -3.053853
  O       2.898330     -0.244734     -3.048509
  C       4.840937      1.602159     -3.020683
  C       0.237276      0.216153      2.122422
  C      -0.667816      1.382778      2.527408
  O      -2.064229      1.085767      2.306202
  S      -2.807609      1.716383      0.965820
  O      -3.279389      0.611137      0.145245
  O      -1.950117      2.762547      0.406021
  C      -4.217218      2.466898      1.790799
  H      -0.433273     -3.364162     -2.492281
  H       0.594851     -1.275067     -1.717307
  H      -1.614537     -1.640390      1.999094
  H      -2.556862     -3.772584      1.197442
  H       0.560408      0.757292     -1.163522
  H       0.991192      1.745978      0.208484
  H       2.552626     -0.752429     -0.687920
  H       2.932098      0.226045      0.745975
  H       5.512627      0.822025     -2.659927
  H       4.902494      1.695535     -4.107324
  H       5.053890      2.560123     -2.543110
  H      -0.003701     -0.666482      2.716948
  H       1.262643      0.503699      2.402404
  H      -0.406057      2.298823      1.991521
  H      -0.570870      1.563225      3.603506
  H      -4.744185      1.690857      2.348623
  H      -3.860776      3.256699      2.453929
  H      -4.861350      2.878444      1.010259
41
Coordinates from ORCA-job /home/tchapet/Post-Doc/ARTICLES-DOSSIERS-DES-ARTICLES-EN-REDACTION/NOUVELS-AXES-DE-RECHERCHE-A-REGARDER-URGEMMENT/ARTICLES-EN-REDACTIONS/ARTICLE_MVOTO/Paper2_JCIM/solvatochromic_tddft/opt_gap_geometries/23424/23424_opt E -1899.600602271625
  O      -2.812947     -5.540945     -0.492456
  N      -2.056197     -4.911815     -1.232338
  C      -1.537361     -3.707745     -0.686468
  C      -0.664284     -2.977757     -1.502610
  C      -0.090339     -1.796359     -1.057919
  C      -0.382535     -1.299037      0.236679
  C      -1.298754     -2.032462      1.041041
  C      -1.854122     -3.212700      0.590362
  N       0.202573     -0.124362      0.704690
  C       1.012223      0.718376     -0.170061
  C       2.472404      0.242118     -0.246169
  O       3.299627      1.170621     -0.993306
  S       3.151134      1.135069     -2.636074
  O       2.245873      2.199415     -3.056114
  O       2.903639     -0.248274     -3.048814
  C       4.840902      1.604466     -3.020499
  C       0.237824      0.216253      2.121667
  C      -0.666156      1.383322      2.527652
  O      -2.062958      1.088593      2.305725
  S      -2.804418      1.722790      0.965829
  O      -3.268738      0.620248      0.137408
  O      -1.949206      2.775370      0.414707
  C      -4.220037      2.462464      1.790416
  H      -0.434575     -3.365496     -2.491217
  H       0.594130     -1.276371     -1.717427
  H      -1.615189     -1.639412      1.999342
  H      -2.558306     -3.771330      1.198813
  H       0.561340      0.756374     -1.164658
  H       0.991579      1.745378      0.207217
  H       2.552458     -0.753945     -0.687947
  H       2.932670      0.224950      0.745344
  H       5.514480      0.826166     -2.659334
  H       4.902678      1.697937     -4.107131
  H       5.050782      2.563127     -2.542990
  H      -0.003122     -0.666422      2.716199
  H       1.263430      0.503202      2.401351
  H      -0.402739      2.300008      1.993724
  H      -0.569862      1.561765      3.604164
  H      -4.744710      1.680918      2.342680
  H      -3.869340      3.250671      2.458474
  H      -4.863850      2.874831      1.010047
41
Coordinates from ORCA-job /home/tchapet/Post-Doc/ARTICLES-DOSSIERS-DES-ARTICLES-EN-REDACTION/NOUVELS-AXES-DE-RECHERCHE-A-REGARDER-URGEMMENT/ARTICLES-EN-REDACTIONS/ARTICLE_MVOTO/Paper2_JCIM/solvatochromic_tddft/opt_gap_geometries/23424/23424_opt E -1899.600601040842
  O      -2.813035     -5.540325     -0.491791
  N      -2.056593     -4.911057     -1.231879
  C      -1.537673     -3.706993     -0.686062
  C      -0.665194     -2.976691     -1.502526
  C      -0.091264     -1.795218     -1.057935
  C      -0.382804     -1.298222      0.236874
  C      -1.298318     -2.032079      1.041671
  C      -1.853780     -3.212295      0.591101
  N       0.202303     -0.123525      0.704846
  C       1.012558      0.718726     -0.169810
  C       2.472303      0.241315     -0.246322
  O       3.300000      1.169362     -0.993473
  S       3.151051      1.134604     -2.636252
  O       2.245857      2.199267     -3.055710
  O       2.903166     -0.248487     -3.049554
  C       4.840821      1.603939     -3.020926
  C       0.238016      0.216592      2.121939
  C      -0.666008      1.383410      2.528509
  O      -2.062713      1.089051      2.305640
  S      -2.802958      1.724026      0.965418
  O      -3.264168      0.622053      0.134468
  O      -1.948446      2.778815      0.417448
  C      -4.221050      2.460113      1.789012
  H      -0.435935     -3.364197     -2.491327
  H       0.592761     -1.274951     -1.717719
  H      -1.614138     -1.639390      2.000340
  H      -2.557399     -3.771231      1.199921
  H       0.561739      0.757312     -1.164427
  H       0.992679      1.745644      0.207780
  H       2.551411     -0.754772     -0.688188
  H       2.932923      0.223628      0.745044
  H       5.514324      0.825370     -2.660212
  H       4.902287      1.697757     -4.107559
  H       5.050978      2.562422     -2.543187
  H      -0.002594     -0.666330      2.716275
  H       1.263669      0.503548      2.401423
  H      -0.402193      2.300578      1.995608
  H      -0.570350      1.560875      3.605243
  H      -4.745051      1.676873      2.339504
  H      -3.872700      3.248125      2.458536
  H      -4.864477      2.872355      1.008258
