41
23424 RDKit ETKDGv3(seed=42)+UFF
O     -1.78429727    -5.59873636    -0.38013457
N     -2.10042431    -4.56398280    -1.00304182
C     -1.50421227    -3.29569056    -0.71309376
C     -1.90156511    -2.17151365    -1.44589179
C     -1.33563580    -0.92082325    -1.18314355
C     -0.36434607    -0.77929009    -0.17990910
C      0.03328646    -1.90631133     0.55567105
C     -0.53122722    -3.15748465     0.29091269
N      0.20582825     0.51238251     0.10304824
C      0.90436586     1.24909594    -0.95983936
C      2.22490012     0.56442757    -1.30338167
O      2.89299978     1.32070245    -2.28394587
S      4.32090928     0.51562071    -2.71906224
O      4.98246572     1.28810214    -3.82478581
O      4.01141169    -0.86907749    -3.21753952
C      5.45252202     0.42186575    -1.34540876
C      0.07685178     1.09190198     1.44880323
C     -1.36356590     1.52969989     1.71186331
O     -2.18506043     0.39277077     1.83788885
S     -3.80880900     0.86879852     1.74382730
O     -4.67193954    -0.33955212     1.97134956
O     -4.10448297     1.42322828     0.37779176
C     -4.20396588     2.08423804     2.98615466
H     -2.65440986    -2.26523937    -2.21854044
H     -1.67077508    -0.05980666    -1.74652802
H      0.79000140    -1.81883297     1.32439048
H     -0.20770804    -4.01437889     0.86778691
H      0.26589656     1.30845050    -1.86668370
H      1.11229751     2.29449749    -0.64364517
H      2.00444076    -0.46039463    -1.67723839
H      2.83517186     0.50398678    -0.37583099
H      5.09082154    -0.32316188    -0.60739370
H      6.45305263     0.11098898    -1.71057491
H      5.53065795     1.41684884    -0.86089717
H      0.39737878     0.35808577     2.21856093
H      0.74090819     1.97651034     1.55868528
H     -1.68334173     2.18900504     0.87276589
H     -1.38409868     2.10887265     2.66049775
H     -3.85730944     1.72704926     3.97767407
H     -3.70702764     3.04611413     2.74401061
H     -5.30196586     2.24103236     3.01482772
