41
Coordinates from ORCA-job /home/tchapet/Post-Doc/ARTICLES-DOSSIERS-DES-ARTICLES-EN-REDACTION/NOUVELS-AXES-DE-RECHERCHE-A-REGARDER-URGEMMENT/ARTICLES-EN-REDACTIONS/ARTICLE_MVOTO/Paper2_JCIM/solvatochromic_tddft/opt_gap_geometries/23424/23424_opt E -1899.600601040842
  O          -2.81303504128137     -5.54032480396385     -0.49179101812726
  N          -2.05659333120463     -4.91105659182923     -1.23187909737944
  C          -1.53767336581327     -3.70699319983214     -0.68606152168160
  C          -0.66519419840876     -2.97669096493946     -1.50252560417895
  C          -0.09126424865123     -1.79521789715338     -1.05793491290745
  C          -0.38280437751722     -1.29822197249582      0.23687376981414
  C          -1.29831807080363     -2.03207912147774      1.04167055169049
  C          -1.85378027754407     -3.21229494304488      0.59110068185400
  N           0.20230274245163     -0.12352510170687      0.70484576585775
  C           1.01255762071109      0.71872632682871     -0.16980999817466
  C           2.47230344908063      0.24131521625324     -0.24632180875986
  O           3.29999981170430      1.16936189349448     -0.99347252648484
  S           3.15105141519946      1.13460432661053     -2.63625231202111
  O           2.24585732776642      2.19926736103594     -3.05570964569229
  O           2.90316641517175     -0.24848666385327     -3.04955390953291
  C           4.84082108852853      1.60393895602965     -3.02092629271438
  C           0.23801625251495      0.21659206098263      2.12193865852736
  C          -0.66600807207761      1.38340959798317      2.52850949290110
  O          -2.06271280812901      1.08905131802536      2.30564047333564
  S          -2.80295788846558      1.72402633149199      0.96541838746230
  O          -3.26416822506497      0.62205344958338      0.13446817326090
  O          -1.94844617106525      2.77881468848970      0.41744831526473
  C          -4.22105043246445      2.46011301463905      1.78901164388523
  H          -0.43593543450424     -3.36419749293356     -2.49132666214889
  H           0.59276070007142     -1.27495107859884     -1.71771940678973
  H          -1.61413794673316     -1.63938976318501      2.00034029946679
  H          -2.55739874015363     -3.77123141315168      1.19992124026762
  H           0.56173861991266      0.75731159834081     -1.16442743423250
  H           0.99267867485139      1.74564365918384      0.20778043691315
  H           2.55141063739838     -0.75477189785941     -0.68818837454543
  H           2.93292258755273      0.22362835041178      0.74504417687176
  H           5.51432371156059      0.82536987628204     -2.66021198839196
  H           4.90228719673087      1.69775746958142     -4.10755850146063
  H           5.05097827233708      2.56242247126658     -2.54318739486301
  H          -0.00259444429045     -0.66632966267863      2.71627496514891
  H           1.26366873155081      0.50354841843818      2.40142305159261
  H          -0.40219339791588      2.30057778663709      1.99560826395649
  H          -0.57035029253849      1.56087516429788      3.60524270092465
  H          -4.74505145814091      1.67687280476453      2.33950372608970
  H          -3.87269993508228      3.24812494240458      2.45853578129780
  H          -4.86447705724457      2.87235547564723      1.00825783370377
