42
Coordinates from ORCA-job /home/tchapet/Post-Doc/ARTICLES-DOSSIERS-DES-ARTICLES-EN-REDACTION/NOUVELS-AXES-DE-RECHERCHE-A-REGARDER-URGEMMENT/ARTICLES-EN-REDACTIONS/ARTICLE_MVOTO/Paper2_JCIM/solvatochromic_tddft/opt_new_geometries/9168/9168_opt E -999.804122608014
  C      -6.093274      1.042361      1.563421
  C      -6.738602     -0.012043      0.926456
  C      -6.001650     -0.931317      0.185966
  C      -4.607003     -0.802180      0.076484
  C      -3.925550      0.265345      0.717345
  C      -4.707221      1.186165      1.465302
  C      -2.500622      0.365141      0.583282
  C      -1.772950      1.399495      1.194636
  C      -0.397250      1.498519      1.067056
  C       0.352084      0.569566      0.318093
  C      -0.352085     -0.495848     -0.318098
  C      -1.781732     -0.600862     -0.186961
  C      -2.519096     -1.642090     -0.801667
  C      -3.896640     -1.735914     -0.670241
  C       0.397245     -1.424785     -1.067086
  C       1.772945     -1.325755     -1.194672
  C       2.500619     -0.291411     -0.583300
  C       1.781731      0.674581      0.186962
  C       2.519099      1.715787      0.801706
  C       3.896644      1.809610      0.670280
  C       4.607004      0.875890     -0.076471
  C       3.925548     -0.191614     -0.717363
  C       4.707218     -1.112428     -1.465333
  C       6.093275     -0.968638     -1.563434
  C       6.738602      0.085762     -0.926466
  C       6.001652      1.005018     -0.185945
  H      -6.670373      1.755348      2.138573
  H      -7.812912     -0.117363      1.006723
  H      -6.522921     -1.746190     -0.303026
  H      -4.287449      2.028066      1.987494
  H      -2.237935      2.165492      1.790432
  H       0.044004      2.333052      1.581083
  H      -2.069956     -2.414096     -1.399332
  H      -4.412787     -2.553278     -1.161736
  H      -0.044013     -2.259299     -1.581145
  H       2.237927     -2.091740     -1.790488
  H       2.069962      2.487772      1.399407
  H       4.412798      2.626953      1.161807
  H       4.287445     -1.954323     -1.987533
  H       6.670383     -1.681636     -2.138569
  H       7.812911      0.191080     -1.006744
  H       6.522925      1.819857      0.303100
42
Coordinates from ORCA-job /home/tchapet/Post-Doc/ARTICLES-DOSSIERS-DES-ARTICLES-EN-REDACTION/NOUVELS-AXES-DE-RECHERCHE-A-REGARDER-URGEMMENT/ARTICLES-EN-REDACTIONS/ARTICLE_MVOTO/Paper2_JCIM/solvatochromic_tddft/opt_new_geometries/9168/9168_opt E -999.812067527359
  C      -6.098120      1.048144      1.567928
  C      -6.760585     -0.011593      0.929867
  C      -6.033205     -0.930112      0.191421
  C      -4.628811     -0.809965      0.074334
  C      -3.943426      0.264023      0.719021
  C      -4.719387      1.184705      1.465961
  C      -2.506423      0.364015      0.583416
  C      -1.768834      1.404742      1.197920
  C      -0.400319      1.503463      1.071144
  C       0.352971      0.569228      0.317753
  C      -0.352973     -0.495491     -0.317765
  C      -1.789010     -0.600936     -0.185940
  C      -2.523241     -1.650934     -0.807149
  C      -3.889345     -1.751335     -0.681770
  C       0.400314     -1.429717     -1.071173
  C       1.768828     -1.330993     -1.197950
  C       2.506420     -0.290279     -0.583428
  C       1.789011      0.674667      0.185939
  C       2.523250      1.724646      0.807174
  C       3.889356      1.825035      0.681799
  C       4.628817      0.883672     -0.074322
  C       3.943424     -0.190299     -0.719027
  C       4.719377     -1.110983     -1.465974
  C       6.098112     -0.974438     -1.567934
  C       6.760585      0.085289     -0.929864
  C       6.033213      1.003805     -0.191404
  H      -6.666958      1.770066      2.147826
  H      -7.839766     -0.112025      1.014103
  H      -6.552610     -1.748586     -0.300278
  H      -4.274163      2.026587      1.984454
  H      -2.251399      2.169486      1.795613
  H       0.063508      2.338778      1.582744
  H      -2.043220     -2.417091     -1.405285
  H      -4.402427     -2.572068     -1.175928
  H      -0.063519     -2.265018     -1.582792
  H       2.251389     -2.095729     -1.795658
  H       2.043237      2.490790      1.405332
  H       4.402445      2.645752      1.175978
  H       4.274143     -1.952857     -1.984475
  H       6.666949     -1.696365     -2.147824
  H       7.839766      0.185713     -1.014109
  H       6.552626      1.822258      0.300323
42
Coordinates from ORCA-job /home/tchapet/Post-Doc/ARTICLES-DOSSIERS-DES-ARTICLES-EN-REDACTION/NOUVELS-AXES-DE-RECHERCHE-A-REGARDER-URGEMMENT/ARTICLES-EN-REDACTIONS/ARTICLE_MVOTO/Paper2_JCIM/solvatochromic_tddft/opt_new_geometries/9168/9168_opt E -999.814350589647
  C      -6.097546      1.052606      1.570586
  C      -6.770249     -0.010166      0.932151
  C      -6.048332     -0.927148      0.195869
  C      -4.640557     -0.815019      0.072770
  C      -3.952850      0.260197      0.717807
  C      -4.725127      1.182039      1.464724
  C      -2.508357      0.360476      0.581399
  C      -1.766135      1.405869      1.198708
  C      -0.405241      1.505650      1.073703
  C       0.352969      0.568078      0.317022
  C      -0.352970     -0.494355     -0.317037
  C      -1.793231     -0.599981     -0.184636
  C      -2.528466     -1.656364     -0.810108
  C      -3.884069     -1.759812     -0.688109
  C       0.405236     -1.431917     -1.073733
  C       1.766128     -1.332129     -1.198740
  C       2.508355     -0.286752     -0.581413
  C       1.793230      0.673699      0.184631
  C       2.528466      1.730069      0.810123
  C       3.884070      1.833513      0.688133
  C       4.640559      0.888726     -0.072756
  C       3.952850     -0.186478     -0.717812
  C       4.725128     -1.108313     -1.464738
  C       6.097549     -0.978887     -1.570586
  C       6.770253      0.083871     -0.932128
  C       6.048335      1.000847     -0.195840
  H      -6.659788      1.779169      2.152382
  H      -7.849810     -0.106479      1.019191
  H      -6.559828     -1.749632     -0.299568
  H      -4.255168      2.017188      1.974948
  H      -2.268910      2.161655      1.793535
  H       0.079042      2.334673      1.578392
  H      -2.021555     -2.409787     -1.403584
  H      -4.402491     -2.579402     -1.180609
  H      -0.079051     -2.260925     -1.578442
  H       2.268899     -2.087905     -1.793585
  H       2.021558      2.483483      1.403611
  H       4.402495      2.653089      1.180652
  H       4.255168     -1.943451     -1.974979
  H       6.659793     -1.705444     -2.152388
  H       7.849815      0.180180     -1.019160
  H       6.559833      1.823320      0.299614
42
Coordinates from ORCA-job /home/tchapet/Post-Doc/ARTICLES-DOSSIERS-DES-ARTICLES-EN-REDACTION/NOUVELS-AXES-DE-RECHERCHE-A-REGARDER-URGEMMENT/ARTICLES-EN-REDACTIONS/ARTICLE_MVOTO/Paper2_JCIM/solvatochromic_tddft/opt_new_geometries/9168/9168_opt E -999.814618708376
  C      -6.097452      1.053650      1.571115
  C      -6.770129     -0.009578      0.932463
  C      -6.047530     -0.925805      0.196772
  C      -4.640440     -0.815168      0.072798
  C      -3.952757      0.258846      0.716942
  C      -4.725620      1.181643      1.464413
  C      -2.507383      0.359372      0.580633
  C      -1.765469      1.406132      1.199146
  C      -0.406442      1.506212      1.074559
  C       0.352644      0.567524      0.316741
  C      -0.352650     -0.493798     -0.316761
  C      -1.793017     -0.599169     -0.184094
  C      -2.529390     -1.657320     -0.810593
  C      -3.883396     -1.760610     -0.688604
  C       0.406436     -1.432480     -1.074588
  C       1.765464     -1.332404     -1.199167
  C       2.507381     -0.285650     -0.580643
  C       1.793013      0.672892      0.184080
  C       2.529386      1.731043      0.810583
  C       3.883393      1.834328      0.688602
  C       4.640441      0.888882     -0.072790
  C       3.952759     -0.185133     -0.716937
  C       4.725626     -1.107939     -1.464395
  C       6.097458     -0.979948     -1.571088
  C       6.770134      0.083283     -0.932438
  C       6.047533      0.999516     -0.196754
  H      -6.659664      1.780062      2.152611
  H      -7.849316     -0.105183      1.019880
  H      -6.553401     -1.750462     -0.300906
  H      -4.247298      2.013414      1.970971
  H      -2.276872      2.156809      1.791959
  H       0.086296      2.331584      1.575664
  H      -2.012674     -2.404981     -1.401526
  H      -4.408117     -2.577891     -1.178526
  H      -0.086303     -2.257844     -1.575707
  H       2.276865     -2.083078     -1.791986
  H       2.012672      2.478707      1.401514
  H       4.408114      2.651608      1.178524
  H       4.247302     -1.939708     -1.970959
  H       6.659674     -1.706362     -2.152580
  H       7.849323      0.178885     -1.019850
  H       6.553404      1.824174      0.300923
42
Coordinates from ORCA-job /home/tchapet/Post-Doc/ARTICLES-DOSSIERS-DES-ARTICLES-EN-REDACTION/NOUVELS-AXES-DE-RECHERCHE-A-REGARDER-URGEMMENT/ARTICLES-EN-REDACTIONS/ARTICLE_MVOTO/Paper2_JCIM/solvatochromic_tddft/opt_new_geometries/9168/9168_opt E -999.814681971089
  C      -6.097772      1.053470      1.570942
  C      -6.768603     -0.009782      0.932103
  C      -6.044539     -0.925431      0.196653
  C      -4.638276     -0.814127      0.073277
  C      -3.951194      0.259015      0.716867
  C      -4.725556      1.182033      1.464577
  C      -2.506317      0.359605      0.580710
  C      -1.765141      1.406756      1.199745
  C      -0.406495      1.506624      1.075047
  C       0.352403      0.567415      0.316713
  C      -0.352412     -0.493635     -0.316764
  C      -1.792413     -0.598696     -0.183867
  C      -2.529783     -1.657308     -0.810485
  C      -3.883917     -1.759808     -0.687871
  C       0.406481     -1.432843     -1.075103
  C       1.765128     -1.332985     -1.199794
  C       2.506309     -0.285850     -0.580738
  C       1.792410      0.672457      0.183835
  C       2.529794      1.731050      0.810474
  C       3.883934      1.833519      0.687886
  C       4.638289      0.887827     -0.073256
  C       3.951190     -0.185294     -0.716870
  C       4.725540     -1.108325     -1.464578
  C       6.097761     -0.979799     -1.570915
  C       6.768609      0.083428     -0.932050
  C       6.044557      0.999092     -0.196604
  H      -6.661534      1.778822      2.151833
  H      -7.847583     -0.105498      1.019414
  H      -6.546540     -1.751470     -0.302502
  H      -4.244390      2.012398      1.969591
  H      -2.280722      2.154693      1.791433
  H       0.090613      2.329877      1.574151
  H      -2.008842     -2.402256     -1.400028
  H      -4.413732     -2.575065     -1.175548
  H      -0.090629     -2.256093     -1.574207
  H       2.280706     -2.080924     -1.791482
  H       2.008864      2.476006      1.400016
  H       4.413756      2.648764      1.175577
  H       4.244361     -1.938673     -1.969610
  H       6.661513     -1.705159     -2.151803
  H       7.847593      0.179111     -1.019337
  H       6.546573      1.825110      0.302567
42
Coordinates from ORCA-job /home/tchapet/Post-Doc/ARTICLES-DOSSIERS-DES-ARTICLES-EN-REDACTION/NOUVELS-AXES-DE-RECHERCHE-A-REGARDER-URGEMMENT/ARTICLES-EN-REDACTIONS/ARTICLE_MVOTO/Paper2_JCIM/solvatochromic_tddft/opt_new_geometries/9168/9168_opt E -999.814688224425
  C      -6.097902      1.053118      1.570661
  C      -6.767947     -0.010085      0.931726
  C      -6.043414     -0.925579      0.196327
  C      -4.637204     -0.813474      0.073556
  C      -3.950457      0.259622      0.717185
  C      -4.725532      1.182408      1.464808
  C      -2.505986      0.360044      0.581027
  C      -1.764974      1.407060      1.200059
  C      -0.406239      1.506682      1.075178
  C       0.352364      0.567462      0.316811
  C      -0.352367     -0.493755     -0.316818
  C      -1.792280     -0.598723     -0.183851
  C      -2.529919     -1.657170     -0.810300
  C      -3.884279     -1.759273     -0.687412
  C       0.406239     -1.432969     -1.075193
  C       1.764975     -1.333343     -1.200070
  C       2.505985     -0.286330     -0.581031
  C       1.792276      0.672431      0.183851
  C       2.529909      1.730876      0.810306
  C       3.884270      1.832982      0.687422
  C       4.637201      0.887190     -0.073549
  C       3.950458     -0.185904     -0.717188
  C       4.725540     -1.108682     -1.464820
  C       6.097910     -0.979389     -1.570662
  C       6.767950      0.083808     -0.931712
  C       6.043413      0.999296     -0.196311
  H      -6.662550      1.777943      2.151304
  H      -7.846931     -0.105859      1.018971
  H      -6.544509     -1.751896     -0.303180
  H      -4.244685      2.012842      1.969881
  H      -2.280993      2.154676      1.791632
  H       0.091539      2.329599      1.573986
  H      -2.008640     -2.401910     -1.399653
  H      -4.415585     -2.573906     -1.174404
  H      -0.091533     -2.255882     -1.574012
  H       2.280996     -2.080952     -1.791651
  H       2.008629      2.475611      1.399665
  H       4.415569      2.647614      1.174422
  H       4.244700     -1.939113     -1.969906
  H       6.662564     -1.704208     -2.151308
  H       7.846935      0.179582     -1.018949
  H       6.544505      1.825610      0.303205
42
Coordinates from ORCA-job /home/tchapet/Post-Doc/ARTICLES-DOSSIERS-DES-ARTICLES-EN-REDACTION/NOUVELS-AXES-DE-RECHERCHE-A-REGARDER-URGEMMENT/ARTICLES-EN-REDACTIONS/ARTICLE_MVOTO/Paper2_JCIM/solvatochromic_tddft/opt_new_geometries/9168/9168_opt E -999.814687198068
  C      -6.097935      1.052935      1.570516
  C      -6.767811     -0.010282      0.931539
  C      -6.043204     -0.925732      0.196172
  C      -4.636855     -0.813209      0.073693
  C      -3.950245      0.259979      0.717413
  C      -4.725590      1.182596      1.464943
  C      -2.505919      0.360247      0.581184
  C      -1.764894      1.407152      1.200177
  C      -0.406121      1.506668      1.075226
  C       0.352367      0.567522      0.316864
  C      -0.352367     -0.493801     -0.316865
  C      -1.792313     -0.598793     -0.183881
  C      -2.529961     -1.657120     -0.810221
  C      -3.884383     -1.759112     -0.687250
  C       0.406121     -1.432949     -1.075226
  C       1.764893     -1.333425     -1.200181
  C       2.505919     -0.286525     -0.581184
  C       1.792314      0.672515      0.183883
  C       2.529962      1.730841      0.810225
  C       3.884384      1.832829      0.687249
  C       4.636855      0.886923     -0.073693
  C       3.950245     -0.186265     -0.717410
  C       4.725587     -1.108887     -1.464938
  C       6.097931     -0.979225     -1.570515
  C       6.767810      0.083994     -0.931542
  C       6.043205      0.999446     -0.196174
  H      -6.662958      1.777566      2.151068
  H      -7.846821     -0.105982      1.018822
  H      -6.544064     -1.752108     -0.303426
  H      -4.245143      2.013199      1.970184
  H      -2.280891      2.154773      1.791801
  H       0.091708      2.329553      1.574066
  H      -2.008712     -2.401921     -1.399564
  H      -4.416148     -2.573557     -1.174018
  H      -0.091705     -2.255837     -1.574067
  H       2.280893     -2.081043     -1.791808
  H       2.008718      2.475641      1.399573
  H       4.416149      2.647274      1.174018
  H       4.245140     -1.939491     -1.970176
  H       6.662954     -1.703856     -2.151066
  H       7.846819      0.179693     -1.018829
  H       6.544067      1.825825      0.303418
