42
9168 RDKit ETKDGv3(seed=42)+UFF
C     -6.09327420     1.04236070     1.56342108
C     -6.73860234    -0.01204251     0.92645609
C     -6.00164977    -0.93131708     0.18596624
C     -4.60700286    -0.80218018     0.07648410
C     -3.92555030     0.26534489     0.71734490
C     -4.70722101     1.18616539     1.46530162
C     -2.50062196     0.36514095     0.58328243
C     -1.77295015     1.39949491     1.19463612
C     -0.39725023     1.49851880     1.06705589
C      0.35208352     0.56956639     0.31809290
C     -0.35208456    -0.49584799    -0.31809835
C     -1.78173204    -0.60086245    -0.18696092
C     -2.51909641    -1.64208967    -0.80166681
C     -3.89664034    -1.73591407    -0.67024068
C      0.39724549    -1.42478523    -1.06708562
C      1.77294515    -1.32575525    -1.19467166
C      2.50061945    -0.29141139    -0.58329956
C      1.78173137     0.67458075     0.18696204
C      2.51909911     1.71578668     0.80170569
C      3.89664441     1.80960997     0.67027988
C      4.60700358     0.87589012    -0.07647076
C      3.92554785    -0.19161422    -0.71736319
C      4.70721843    -1.11242751    -1.46533298
C      6.09327546    -0.96863794    -1.56343420
C      6.73860190     0.08576249    -0.92646585
C      6.00165200     1.00501789    -0.18594451
H     -6.67037267     1.75534835     2.13857312
H     -7.81291172    -0.11736305     1.00672319
H     -6.52292081    -1.74618951    -0.30302629
H     -4.28744914     2.02806635     1.98749374
H     -2.23793544     2.16549216     1.79043195
H      0.04400371     2.33305233     1.58108286
H     -2.06995560    -2.41409649    -1.39933191
H     -4.41278725    -2.55327765    -1.16173614
H     -0.04401302    -2.25929880    -1.58114475
H      2.23792708    -2.09173980    -1.79048778
H      2.06996175     2.48777155     1.39940720
H      4.41279764     2.62695281     1.16180686
H      4.28744509    -1.95432277    -1.98753259
H      6.67038302    -1.68163561    -2.13856879
H      7.81291080     0.19108040    -1.00674417
H      6.52292498     1.81985733     0.30309962
